particle_id,object_id,pos_x,pos_y,vel_x,vel_y,stress_xx,stress_xy,stress_yx,stress_yy,strain_xx,strain_xy,strain_yx,strain_yy,volume,mass,density,youngs_modulus,poisson_ratio
0,1,0.037546992821191984,0.08749999465546736,0.9993119297265597,-0.00044765152869725495,-641.2079887295109,-0.34642028766516364,-0.34642028766516364,-472.80962148125866,0.0,0.0,0.0,0.0,0.001,1.0,1000,10000000.0,0.3
1,1,0.03254698870480403,0.09249999868653154,0.9989664268691246,-0.00010654688837933729,22.26159013213056,0.062238803469978995,0.062238803469978995,19.221000676315512,0.0,0.0,0.0,0.0,0.001,1.0,1000,10000000.0,0.3
2,1,0.03254699095267153,0.09749999956217877,0.9991562507863033,-3.551572114263066e-05,22.471984767035632,0.2100491578826894,0.2100491578826894,19.3776773657076,0.0,0.0,0.0,0.0,0.001,1.0,1000,10000000.0,0.3
3,1,0.03754699648289273,0.09249999861115156,0.999620123731821,-0.00011596239850740765,-642.4510758384585,0.09626762373320535,0.09626762373320535,-475.26209470301495,0.0,0.0,0.0,0.0,0.001,1.0,1000,10000000.0,0.3
4,1,0.03754699748522521,0.09749999953705264,0.9997036631128234,-3.865414288703827e-05,-642.2575051347324,0.23929439433765148,0.23929439433765148,-475.1179464686247,0.0,0.0,0.0,0.0,0.001,1.0,1000,10000000.0,0.3
5,1,0.03254699095267259,0.10250000043781891,0.999156250931772,3.5515340678615365e-05,22.471983872582328,-0.21004751464832866,-0.21004751464832866,19.377676490926937,0.0,0.0,0.0,0.0,0.001,1.0,1000,10000000.0,0.3
6,1,0.0325469887048069,0.10750000131346486,0.9989664273055663,0.00010654629242119456,22.261586501331923,-0.06321211225528887,-0.06321211225528887,19.220996779699405,0.0,0.0,0.0,0.0,0.001,1.0,1000,10000000.0,0.3
7,1,0.0375469974852259,0.10250000046294709,0.9997036632223365,3.865408941931393e-05,-642.2575056848336,-0.23929289652381627,-0.23929289652381627,-475.1179468765195,0.0,0.0,0.0,0.0,0.001,1.0,1000,10000000.0,0.3
8,1,0.03754699648289507,0.10750000138884784,0.9996201240603619,0.0001159622964253892,-642.4510793192214,-0.0972808486082064,-0.0972808486082064,-475.2620983837959,0.0,0.0,0.0,0.0,0.001,1.0,1000,10000000.0,0.3
9,1,0.037546992821194274,0.11250000534453215,0.9993119300548862,0.0004476514338298124,-641.2079897659587,0.34642085819763524,0.34642085819763524,-472.8096213089653,0.0,0.0,0.0,0.0,0.001,1.0,1000,10000000.0,0.3
10,1,0.04254699662105971,0.08249999278247383,0.9996328905414901,-0.0006033335636507731,21.035532777658617,0.07950587002246602,0.07950587002246602,20.475485603214842,0.0,0.0,0.0,0.0,0.001,1.0,1000,10000000.0,0.3
11,1,0.04254699910736693,0.08749999663880526,0.9998409533161284,-0.00028217542427569635,20.596297012139964,0.16489442121693168,0.16489442121693168,20.148404528848438,0.0,0.0,0.0,0.0,0.001,1.0,1000,10000000.0,0.3
12,1,0.04754699953200224,0.0824999931763539,0.9998766147443231,-0.0005710830412868382,-644.0806906806988,0.03768901239934724,0.03768901239934724,-474.5075725352451,0.0,0.0,0.0,0.0,0.001,1.0,1000,10000000.0,0.3
13,1,0.04754700036159938,0.08749999738767889,0.9999460576646858,-0.00021987784173604398,-644.5205468392738,0.11700995813875074,0.11700995813875074,-474.8351159235552,0.0,0.0,0.0,0.0,0.001,1.0,1000,10000000.0,0.3
14,1,0.042547000495445894,0.09249999892522832,0.9999566664703124,-9.119722853079523e-05,17.023602497952965,0.3390360089773079,0.3390360089773079,15.952225202826224,0.0,0.0,0.0,0.0,0.001,1.0,1000,10000000.0,0.3
15,1,0.04254700078529552,0.097499999641745,0.9999800300025106,-3.039905004809171e-05,15.451944424718333,0.2611584930944565,0.2611584930944565,14.781841359727627,0.0,0.0,0.0,0.0,0.001,1.0,1000,10000000.0,0.3
16,1,0.04754700082565956,0.09249999962000806,0.9999847871542681,-3.320641348843425e-05,-649.0698548715985,0.14216271925021,0.14216271925021,-480.3465946672472,0.0,0.0,0.0,0.0,0.001,1.0,1000,10000000.0,0.3
17,1,0.04754700092418278,0.09749999987333931,0.9999928032221542,-1.1068787701616424e-05,-650.6280303969842,0.06178063507196689,0.06178063507196689,-481.50693822539944,0.0,0.0,0.0,0.0,0.001,1.0,1000,10000000.0,0.3
18,1,0.04254700078529603,0.10250000035825556,0.9999800300794093,3.0399140592839194e-05,15.451944257060767,-0.26115808012162517,-0.26115808012162517,14.78184131265688,0.0,0.0,0.0,0.0,0.001,1.0,1000,10000000.0,0.3
19,1,0.04254700049544735,0.10750000107477237,0.9999566667009971,9.119734629169978e-05,17.02360029009042,-0.33981387706423766,-0.33981387706423766,15.952222772190526,0.0,0.0,0.0,0.0,0.001,1.0,1000,10000000.0,0.3
20,1,0.047547000924183076,0.10250000012666104,0.9999928032696852,1.1068845029805795e-05,-650.6280306609302,-0.06178029488308472,-0.06178029488308472,-481.50693839820906,0.0,0.0,0.0,0.0,0.001,1.0,1000,10000000.0,0.3
21,1,0.04754700082566053,0.10750000037999238,0.9999847872968248,3.320648567991954e-05,-649.0698562504286,-0.14243289458538078,-0.14243289458538078,-480.3465959739374,0.0,0.0,0.0,0.0,0.001,1.0,1000,10000000.0,0.3
22,1,0.042546999107368484,0.11250000336119542,0.9998409535470724,0.00028217552248700815,20.596296626018013,-0.16489482515944637,-0.16489482515944637,20.14840465118709,0.0,0.0,0.0,0.0,0.001,1.0,1000,10000000.0,0.3
23,1,0.042546996621060214,0.11750000721752644,0.9996328906191597,0.0006033335955467338,21.03553263037006,-0.07950627656277154,-0.07950627656277154,20.475485903407474,0.0,0.0,0.0,0.0,0.001,1.0,1000,10000000.0,0.3
24,1,0.047547000361600346,0.11250000261232146,0.999946057807968,0.00021987790087053789,-644.5205472604275,-0.11701032839104948,-0.11701032839104948,-474.8351158357926,0.0,0.0,0.0,0.0,0.001,1.0,1000,10000000.0,0.3
25,1,0.04754699953200256,0.11750000682364621,0.999876614793944,0.0005710830594440277,-644.0806908569252,-0.037689385621301134,-0.037689385621301134,-474.50757226508944,0.0,0.0,0.0,0.0,0.001,1.0,1000,10000000.0,0.3
26,1,0.05254700308355536,0.08249999284543073,1.0001747955235538,-0.0005996460352121507,21.079054858805353,-0.31214165379207864,-0.31214165379207864,20.81312505959607,0.0,0.0,0.0,0.0,0.001,1.0,1000,10000000.0,0.3
27,1,0.05254700225709835,0.08749999738474404,1.000105681168277,-0.0002201911436490808,19.594017856688232,-0.4116199222400001,-0.4116199222400001,19.707256048869187,0.0,0.0,0.0,0.0,0.001,1.0,1000,10000000.0,0.3
28,1,0.057547007261161555,0.08249999180601779,1.0005258834109105,-0.0006873100581665011,-645.2505107702344,-0.48337930941454443,-0.48337930941454443,-475.7187084645309,0.0,0.0,0.0,0.0,0.001,1.0,1000,10000000.0,0.3
29,1,0.05754700477943324,0.08749999664668195,1.0003182904597778,-0.0002813801519838747,-646.6981963514617,-0.5878827588340525,-0.5878827588340525,-476.7967611996821,0.0,0.0,0.0,0.0,0.001,1.0,1000,10000000.0,0.3
30,1,0.052547001635340866,0.092499999740803,1.0000536489311276,-2.2847781579054003e-05,15.064256082085114,-0.395250397070582,-0.395250397070582,14.382676501363985,0.0,0.0,0.0,0.0,0.001,1.0,1000,10000000.0,0.3
31,1,0.052547001218283235,0.09749999991360431,1.0000186988031443,-7.615968178685677e-06,14.014125303861901,-0.22859477056040672,-0.22859477056040672,13.600664146204238,0.0,0.0,0.0,0.0,0.001,1.0,1000,10000000.0,0.3
32,1,0.057547002913757285,0.0924999993002617,1.000162112634066,-5.881143364455616e-05,-649.6747228364957,-0.52092136782975,-0.52092136782975,-480.054266444683,0.0,0.0,0.0,0.0,0.001,1.0,1000,10000000.0,0.3
33,1,0.057547001664133256,0.09749999976675548,1.0000573499178498,-1.9603956883844074e-05,-650.6996827066976,-0.35985195985393265,-0.35985195985393265,-480.81753457535683,0.0,0.0,0.0,0.0,0.001,1.0,1000,10000000.0,0.3
34,1,0.052547001218283644,0.10250000008639477,1.000018698871544,7.615821094554658e-06,14.014127078380819,0.22859549401784712,0.22859549401784712,13.600665353988104,0.0,0.0,0.0,0.0,0.001,1.0,1000,10000000.0,0.3
35,1,0.05254700163534234,0.1075000002591958,1.0000536491362946,2.2847588733247703e-05,15.06426143428283,0.39506752880590734,0.39506752880590734,14.382680163176035,0.0,0.0,0.0,0.0,0.001,1.0,1000,10000000.0,0.3
36,1,0.05754700166413412,0.10250000023324118,1.0000573500557641,1.9603439646711132e-05,-650.6996813391357,0.35985318657223125,0.35985318657223125,-480.81753388866207,0.0,0.0,0.0,0.0,0.001,1.0,1000,10000000.0,0.3
37,1,0.057547002913760054,0.107500000699734,1.0001621130478295,5.8810763286992084e-05,-649.6747186236104,0.5204128040466199,0.5204128040466199,-480.05426423567013,0.0,0.0,0.0,0.0,0.001,1.0,1000,10000000.0,0.3
38,1,0.052547002257099955,0.11250000261525492,1.0001056813738851,0.00022019098107052578,19.59402495087102,0.41161946225898016,0.41161946225898016,19.7072614846547,0.0,0.0,0.0,0.0,0.001,1.0,1000,10000000.0,0.3
39,1,0.05254700308355587,0.11750000715456889,1.0001747955932452,0.0005996459789298609,21.079059913864704,0.31214105611352627,0.31214105611352627,20.813128976886496,0.0,0.0,0.0,0.0,0.001,1.0,1000,10000000.0,0.3
40,1,0.05754700477943614,0.11250000335331437,1.0003182908730064,0.0002813795908759153,-646.6981902104434,0.5878820427242214,0.5878820427242214,-476.7967569544556,0.0,0.0,0.0,0.0,0.001,1.0,1000,10000000.0,0.3
41,1,0.057547007261162395,0.1175000081939808,1.0005258835472295,0.0006873098686783851,-645.2505066209928,0.48337845791756234,0.48337845791756234,-475.71870570253543,0.0,0.0,0.0,0.0,0.001,1.0,1000,10000000.0,0.3
42,1,0.0625470066790812,0.08749999511773744,1.0004774280571818,-0.0004088535020379992,14.15489301908165,-0.5025275435753318,-0.5025275435753318,14.047373327603495,0.0,0.0,0.0,0.0,0.001,1.0,1000,10000000.0,0.3
43,1,0.06254700553123226,0.09249999718298647,1.000381501989276,-0.00023690845822480513,18.818807178453856,-0.7265046476646587,-0.7265046476646587,18.63089145102446,0.0,0.0,0.0,0.0,0.001,1.0,1000,10000000.0,0.3
44,1,0.06254700452771886,0.09749999906099703,1.0002977980612104,-7.896951402585851e-05,20.575431694352613,-0.3965285642431126,-0.3965285642431126,19.939016289143957,0.0,0.0,0.0,0.0,0.001,1.0,1000,10000000.0,0.3
45,1,0.06754700945794079,0.09249999342647368,1.0007087260049392,-0.0005531717615052309,-645.0982058325778,-0.48832211090236105,-0.48832211090236105,-474.624118037374,0.0,0.0,0.0,0.0,0.001,1.0,1000,10000000.0,0.3
46,1,0.06754700975532286,0.09749999780882776,1.0007344429748997,-0.00018439030835458504,-643.3594665782397,-0.16763985847603774,-0.16763985847603774,-473.329309236005,0.0,0.0,0.0,0.0,0.001,1.0,1000,10000000.0,0.3
47,1,0.06254700452772076,0.10250000093900252,1.00029779836085,7.896945363443778e-05,20.575434533913224,0.39653333945968866,0.39653333945968866,19.939018264068505,0.0,0.0,0.0,0.0,0.001,1.0,1000,10000000.0,0.3
48,1,0.06254700553123851,0.10750000281701381,1.0003815028883016,0.0002369084991329819,18.818812343829904,0.7244585072967757,0.7244585072967757,18.630892872789598,0.0,0.0,0.0,0.0,0.001,1.0,1000,10000000.0,0.3
49,1,0.06754700975532736,0.10250000219118044,1.0007344435256158,0.00018439150559745936,-643.359462843625,0.16764537203993907,0.16764537203993907,-473.3293060056526,0.0,0.0,0.0,0.0,0.001,1.0,1000,10000000.0,0.3
50,1,0.06754700945795142,0.10750000657353949,1.000708727657097,0.0005531736647632526,-645.0982038789157,0.4835429340289361,0.4835429340289361,-474.6241207723101,0.0,0.0,0.0,0.0,0.001,1.0,1000,10000000.0,0.3
51,1,0.0625470066790873,0.11250000488226308,1.0004774289540337,0.000408853569274959,14.154900629282718,0.5025293854028047,0.5025293854028047,14.047376195568141,0.0,0.0,0.0,0.0,0.001,1.0,1000,10000000.0,0.3
