particle_id,object_id,pos_x,pos_y,vel_x,vel_y,stress_xx,stress_xy,stress_yx,stress_yy,strain_xx,strain_xy,strain_yx,strain_yy,volume,mass,density,youngs_modulus,poisson_ratio
0,1,0.03756197664469946,0.08749998418823313,0.9984593264303202,-0.00099230838002159,-1085.908354692091,-1.0542154679291162,-1.0542154679291162,-794.7934370264977,0.0,0.0,0.0,0.0,0.001,1.0,1000,10000000.0,0.3
1,1,0.03256196443019168,0.09249999629401111,0.9976900675060286,-0.00021882470912833977,65.86140179924043,0.16015218097211123,0.16015218097211123,56.76813926224053,0.0,0.0,0.0,0.0,0.001,1.0,1000,10000000.0,0.3
2,1,0.03256197116024417,0.09749999876466846,0.998118504198846,-7.294204900317076e-05,66.41815635373375,0.6180624608232366,0.6180624608232366,57.1827423335388,0.0,0.0,0.0,0.0,0.001,1.0,1000,10000000.0,0.3
3,1,0.03756198755570554,0.0924999959110166,0.9991500542387547,-0.0002550385947235639,-1089.7234036662085,0.25949528927153825,0.25949528927153825,-802.1762621412889,0.0,0.0,0.0,0.0,0.001,1.0,1000,10000000.0,0.3
4,1,0.03756199050030436,0.09749999863700692,0.9993333033640235,-8.501292585415339e-05,-1089.2313363466772,0.6985421684404075,0.6985421684404075,-801.8098304368494,0.0,0.0,0.0,0.0,0.001,1.0,1000,10000000.0,0.3
5,1,0.03256197116025076,0.10250000123531412,0.9981185049401325,7.294008921173775e-05,66.41815040898561,-0.6180512913322336,-0.6180512913322336,57.18273651289351,0.0,0.0,0.0,0.0,0.001,1.0,1000,10000000.0,0.3
6,1,0.03256196443021155,0.10750000370596101,0.9976900697299019,0.00021882165176293023,65.8613747514566,-0.16384634345263877,-0.16384634345263877,56.76810942784316,0.0,0.0,0.0,0.0,0.001,1.0,1000,10000000.0,0.3
7,1,0.037561990500309325,0.1025000013629903,0.999333303928718,8.501263238600141e-05,-1089.231339958302,-0.6985319762575932,-0.6985319762575932,-801.8098330813534,0.0,0.0,0.0,0.0,0.001,1.0,1000,10000000.0,0.3
8,1,0.03756198755572099,0.10750000408897878,0.9991500559328576,0.00025503805729637415,-1089.723430530441,-0.2634570712848741,-0.2634570712848741,-802.1762915971307,0.0,0.0,0.0,0.0,0.001,1.0,1000,10000000.0,0.3
9,1,0.037561976644714695,0.11250001581176257,0.9984593281224853,0.0009923078847038668,-1085.9083614496496,1.0542193369160198,1.0542193369160198,-794.7934356177448,0.0,0.0,0.0,0.0,0.001,1.0,1000,10000000.0,0.3
10,1,0.042561988028283135,0.08249997871331387,0.9991846933524481,-0.001330584908356588,62.31408393324213,0.21359440366873136,0.21359440366873136,60.59351089930909,0.0,0.0,0.0,0.0,0.001,1.0,1000,10000000.0,0.3
11,1,0.04256199537621677,0.08749999002440423,0.9996453509379396,-0.000628335946016936,61.09875354529478,0.4605159214074852,0.4605159214074852,59.68855943599721,0.0,0.0,0.0,0.0,0.001,1.0,1000,10000000.0,0.3
12,1,0.04756199663520456,0.08249997983869935,0.9997244383405317,-0.0012630976877847453,-1094.6580405056814,0.11420315538365076,0.11420315538365076,-800.0482251163396,0.0,0.0,0.0,0.0,0.001,1.0,1000,10000000.0,0.3
13,1,0.04756199908783332,0.08749999221670396,0.9998782574570384,-0.0004925898310678014,-1095.876947034991,0.33754674933923945,0.33754674933923945,-800.9558422854033,0.0,0.0,0.0,0.0,0.001,1.0,1000,10000000.0,0.3
14,1,0.042561999455439384,0.09249999675996458,0.9998993285361976,-0.00020790837263805545,50.68097563043462,0.9862817435849885,0.9862817435849885,47.44739094904128,0.0,0.0,0.0,0.0,0.001,1.0,1000,10000000.0,0.3
15,1,0.04256200026595018,0.09749999891999116,0.9999466261289666,-6.930266291798737e-05,46.05060551135175,0.7631257103151294,0.7631257103151294,43.999241493913104,0.0,0.0,0.0,0.0,0.001,1.0,1000,10000000.0,0.3
16,1,0.0475620004537823,0.09249999880428238,0.99996346487124,-8.05018166051998e-05,-1109.132503977214,0.4100883936035723,0.4100883936035723,-817.0223499414893,0.0,0.0,0.0,0.0,0.001,1.0,1000,10000000.0,0.3
17,1,0.047562000733051585,0.0974999996014314,0.9999800606405052,-2.683385227930456e-05,-1113.7104599278457,0.17701139685637757,0.17701139685637757,-820.4314668123716,0.0,0.0,0.0,0.0,0.001,1.0,1000,10000000.0,0.3
18,1,0.04256200026595369,0.10250000108001275,0.999946626530785,6.930310868603146e-05,46.05060444840426,-0.7631228274655708,-0.7631228274655708,43.999241251095164,0.0,0.0,0.0,0.0,0.001,1.0,1000,10000000.0,0.3
19,1,0.04256199945545011,0.1075000032400407,0.9998993297416275,0.0002079089600853683,50.68095778649801,-0.9893775862149097,-0.9893775862149097,47.447370540892955,0.0,0.0,0.0,0.0,0.001,1.0,1000,10000000.0,0.3
20,1,0.04756200073305378,0.10250000039857107,0.9999800608925798,2.6834148321903588e-05,-1113.7104617013026,-0.17700899088513888,-0.17700899088513888,-820.4314679760722,0.0,0.0,0.0,0.0,0.001,1.0,1000,10000000.0,0.3
21,1,0.047562000453788854,0.10750000119572083,0.999963465627471,8.050219126429343e-05,-1109.1325144923107,-0.4111976053966841,-0.4111976053966841,-817.0223604078245,0.0,0.0,0.0,0.0,0.001,1.0,1000,10000000.0,0.3
22,1,0.04256199537622749,0.11250000997560058,0.9996453521456581,0.0006283364368418666,61.0987511137501,-0.460518661062696,-0.460518661062696,59.688560442984155,0.0,0.0,0.0,0.0,0.001,1.0,1000,10000000.0,0.3
23,1,0.04256198802828667,0.11750002128668792,0.9991846937611143,0.0013305850642572842,62.31408305998894,-0.21359717037133538,-0.21359717037133538,60.5935130667127,0.0,0.0,0.0,0.0,0.001,1.0,1000,10000000.0,0.3
24,1,0.047561999087840146,0.1125000077832987,0.9998782582196282,0.000492590136267555,-1095.8769498138424,-0.33754926126604595,-0.33754926126604595,-800.9558416275081,0.0,0.0,0.0,0.0,0.001,1.0,1000,10000000.0,0.3
25,1,0.047561996635206875,0.11750002016130152,0.9997244386116352,0.001263097775449061,-1094.6580416691265,-0.11420569765052471,-0.11420569765052471,-800.0482232554833,0.0,0.0,0.0,0.0,0.001,1.0,1000,10000000.0,0.3
26,1,0.05256200717961752,0.08249997881611922,1.0003890505642736,-0.001330586247278444,62.53358310696827,-0.923178708018069,-0.923178708018069,61.667568722101976,0.0,0.0,0.0,0.0,0.001,1.0,1000,10000000.0,0.3
27,1,0.052562004739161484,0.08749999220499399,1.0002361857999558,-0.0004935277861291904,58.13359375130508,-1.21391660744293,-1.21391660744293,58.39106500353921,0.0,0.0,0.0,0.0,0.001,1.0,1000,10000000.0,0.3
28,1,0.057562019603330676,0.08249997570911594,1.0011738349586699,-0.0015280514435887314,-1098.1055891358146,-1.4131630516796418,-1.4131630516796418,-803.5814051676726,0.0,0.0,0.0,0.0,0.001,1.0,1000,10000000.0,0.3
29,1,0.05756201227266474,0.08749999005320142,1.0007145032599578,-0.0006261977520457638,-1102.3596142238255,-1.723642668797486,-1.723642668797486,-806.7491997198306,0.0,0.0,0.0,0.0,0.001,1.0,1000,10000000.0,0.3
30,1,0.052562002901603046,0.09249999917457567,1.0001209841745355,-5.6248947877473534e-05,44.8823487000332,-1.1656792573777623,-1.1656792573777623,42.84011937154402,0.0,0.0,0.0,0.0,0.001,1.0,1000,10000000.0,0.3
31,1,0.05256200166694262,0.09749999972486022,1.0000434456308178,-1.87498607790297e-05,41.78106572256312,-0.6759906848230367,-0.6759906848230367,40.5306526647304,0.0,0.0,0.0,0.0,0.001,1.0,1000,10000000.0,0.3
32,1,0.057562006756180846,0.09249999791893244,1.0003684508236792,-0.0001314533337569869,-1111.0561211603256,-1.5288712170313348,-1.5288712170313348,-816.2568145684093,0.0,0.0,0.0,0.0,0.001,1.0,1000,10000000.0,0.3
33,1,0.0575620030538787,0.09749999930630673,1.0001356775479422,-4.381853342362476e-05,-1114.0591604961448,-1.0609631896726452,-1.0609631896726452,-818.4931216800204,0.0,0.0,0.0,0.0,0.001,1.0,1000,10000000.0,0.3
34,1,0.05256200166694569,0.1025000002751332,1.0000434459919723,1.874909977121998e-05,41.78107784450737,0.6759956782234873,0.6759956782234873,40.53066089487127,0.0,0.0,0.0,0.0,0.001,1.0,1000,10000000.0,0.3
35,1,0.05256200290161274,0.10750000082541533,1.0001209852579818,5.624794879896455e-05,44.88238446091337,1.1649224018968987,1.1649224018968987,42.84014324960089,0.0,0.0,0.0,0.0,0.001,1.0,1000,10000000.0,0.3
36,1,0.057562003053885195,0.10250000069366914,1.0001356782662216,4.381584603537623e-05,-1114.0591512560618,1.060971633517193,1.060971633517193,-818.493117087673,0.0,0.0,0.0,0.0,0.001,1.0,1000,10000000.0,0.3
37,1,0.057562006756200386,0.10750000208103638,1.0003684529785126,0.00013144984860683797,-1111.0560945712468,1.5268691386245827,1.5268691386245827,-816.2568023081772,0.0,0.0,0.0,0.0,0.001,1.0,1000,10000000.0,0.3
38,1,0.05256200473917124,0.11250000779499815,1.0002361868873424,0.000493526940481539,58.133642225821525,1.2139134260371067,1.2139134260371067,58.39110210338207,0.0,0.0,0.0,0.0,0.001,1.0,1000,10000000.0,0.3
39,1,0.05256200717962089,0.11750002118387833,1.0003890509371525,0.0013305859465646483,62.53361754858366,0.9231745847612677,0.9231745847612677,61.66759537192976,0.0,0.0,0.0,0.0,0.001,1.0,1000,10000000.0,0.3
40,1,0.05756201227268361,0.11250000994677296,1.000714505410035,0.000626194830748921,-1102.3595725966395,1.7236377342024194,1.7236377342024194,-806.7491710101087,0.0,0.0,0.0,0.0,0.001,1.0,1000,10000000.0,0.3
41,1,0.05756201960333693,0.11750002429087533,1.0011738356626592,0.0015280504477637707,-1098.105561122659,1.4131571956150009,1.4131571956150009,-803.5813865959949,0.0,0.0,0.0,0.0,0.001,1.0,1000,10000000.0,0.3
42,1,0.06256201788602717,0.08749998556132853,1.0010658095758167,-0.0009056361391097689,41.79966283243574,-1.4957766662276173,-1.4957766662276173,41.468576529483734,0.0,0.0,0.0,0.0,0.001,1.0,1000,10000000.0,0.3
43,1,0.06256201450779987,0.09249999161806373,1.0008555187501067,-0.000529573608398851,55.725507558101576,-2.1597000669548856,-2.1597000669548856,55.21407199190137,0.0,0.0,0.0,0.0,0.001,1.0,1000,10000000.0,0.3
44,1,0.06256201155616571,0.09749999720602208,1.0006715491357665,-0.00017652466640862875,60.938894208258155,-1.1743929060350797,-1.1743929060350797,59.09638303479878,0.0,0.0,0.0,0.0,0.001,1.0,1000,10000000.0,0.3
45,1,0.06756202604290508,0.09249998042021726,1.001573446417592,-0.001238771988379695,-1097.8289404587815,-1.4395158570484865,-1.4395158570484865,-800.3784191409854,0.0,0.0,0.0,0.0,0.001,1.0,1000,10000000.0,0.3
46,1,0.0675620269669219,0.09749999347341864,1.0016349452605668,-0.00041292255603819214,-1092.685889172601,-0.4906672191268945,-0.4906672191268945,-796.548460734878,0.0,0.0,0.0,0.0,0.001,1.0,1000,10000000.0,0.3
47,1,0.06256201155617928,0.10250000279397489,1.000671550697076,0.00017652436306152516,60.93891380647876,1.1744257490159569,1.1744257490159569,59.09639668087593,0.0,0.0,0.0,0.0,0.001,1.0,1000,10000000.0,0.3
48,1,0.06256201450784162,0.10750000838193825,1.0008555234340835,0.0005295738384964103,55.72553588955472,2.151639454930287,2.151639454930287,55.21407202240172,0.0,0.0,0.0,0.0,0.001,1.0,1000,10000000.0,0.3
49,1,0.06756202696694746,0.1025000065266362,1.0016349481303524,0.0004129287679385757,-1092.6858635995172,0.49070505148972643,0.49070505148972643,-796.5484385873639,0.0,0.0,0.0,0.0,0.001,1.0,1000,10000000.0,0.3
50,1,0.0675620260429812,0.10750001957987117,1.0015734550269626,0.0012387818770405452,-1097.8289423378235,1.4206588449540158,1.4206588449540158,-800.3784582587596,0.0,0.0,0.0,0.0,0.001,1.0,1000,10000000.0,0.3
51,1,0.062562017886069,0.11250001443867458,1.0010658142401434,0.0009056364987878142,41.79971526926594,1.4957893195990968,1.4957893195990968,41.468596284565784,0.0,0.0,0.0,0.0,0.001,1.0,1000,10000000.0,0.3
