particle_id,object_id,pos_x,pos_y,vel_x,vel_y,stress_xx,stress_xy,stress_yx,stress_yy,strain_xx,strain_xy,strain_yx,strain_yy,volume,mass,density,youngs_modulus,poisson_ratio
0,1,0.03780994607274492,0.08749989823537517,0.9980348322847858,-0.0012991639178858965,-285.02040498461565,-0.05682607185026705,-0.05682607185026705,-211.34210256970175,0.0,0.0,0.0,0.0,0.001,1.0,1000,100000.0,0.3
1,1,0.032809867031035944,0.09249997413403493,0.9970223587648016,-0.0003259387969066271,4.180312348481781,0.010512083210339798,0.010512083210339798,3.623683538910695,0.0,0.0,0.0,0.0,0.001,1.0,1000,100000.0,0.3
2,1,0.03280990977460815,0.09749999137797709,0.9975709026277042,-0.00010864706229476893,4.213928837615037,0.039469143648627907,0.039469143648627907,3.64871647542373,0.0,0.0,0.0,0.0,0.001,1.0,1000,100000.0,0.3
3,1,0.03781001520981195,0.09249997273213181,0.9989182086831775,-0.00035020664834339935,-285.30554486318215,0.02392139930138723,0.02392139930138723,-211.85040000995403,0.0,0.0,0.0,0.0,0.001,1.0,1000,100000.0,0.3
4,1,0.03781003390003423,0.09749999091070742,0.999154527727184,-0.0001167356325667461,-285.29229213062365,0.046770929148734854,0.046770929148734854,-211.84053161077244,0.0,0.0,0.0,0.0,0.001,1.0,1000,100000.0,0.3
5,1,0.03280990977466225,0.10250000862188163,0.9975709038427598,0.00010864388234193774,4.213928350779581,-0.039468244551103725,-0.039468244551103725,3.648715998553175,0.0,0.0,0.0,0.0,0.001,1.0,1000,100000.0,0.3
6,1,0.03280986703119829,0.10750002586574281,0.9970223624099839,0.00032593381743679895,4.180305072884957,-0.011759299116668592,-0.011759299116668592,3.6236742994666424,0.0,0.0,0.0,0.0,0.001,1.0,1000,100000.0,0.3
7,1,0.03781003390007498,0.10250000908927498,0.9991545286427272,0.00011673523113809209,-285.2922924368134,-0.04677012723683921,-0.04677012723683921,-211.8405318275044,0.0,0.0,0.0,0.0,0.001,1.0,1000,100000.0,0.3
8,1,0.03781001520993404,0.10750002726783281,0.9989182114298145,0.00035020588328332514,-285.3055527240062,-0.025220852776640625,-0.025220852776640625,-211.85040998289253,0.0,0.0,0.0,0.0,0.001,1.0,1000,100000.0,0.3
9,1,0.03780994607286687,0.11250010176459299,0.998034835030539,0.0012991632075139278,-285.02040559908494,0.05682635984610211,0.05682635984610211,-211.34210250411638,0.0,0.0,0.0,0.0,0.001,1.0,1000,100000.0,0.3
10,1,0.04281001612758074,0.08249985950683893,0.9989269124551062,-0.0018013045225479913,4.0070641085446805,0.0206649759987625,0.0206649759987625,3.9206943437685258,0.0,0.0,0.0,0.0,0.001,1.0,1000,100000.0,0.3
11,1,0.04281006227348841,0.08749993493706028,0.9995115609658082,-0.0008354245885671283,3.959957133143976,0.03107480303395416,0.03107480303395416,3.8856500540777823,0.0,0.0,0.0,0.0,0.001,1.0,1000,100000.0,0.3
12,1,0.047810071627426474,0.08249986821696621,0.9996351961851344,-0.0016873834294767458,-285.6372710273944,0.03268352494540839,0.03268352494540839,-211.7128748963625,0.0,0.0,0.0,0.0,0.001,1.0,1000,100000.0,0.3
13,1,0.04781008716265082,0.08749995010227175,0.9998327285727362,-0.0006396829165073895,-285.68805838410145,0.0353928150928618,0.0353928150928618,-211.75066145035711,0.0,0.0,0.0,0.0,0.001,1.0,1000,100000.0,0.3
14,1,0.042810088141197945,0.09249997948919443,0.9998387725202875,-0.0002643617879293699,3.2799818342984746,0.06378405503537796,0.06378405503537796,3.0701247579205395,0.0,0.0,0.0,0.0,0.001,1.0,1000,100000.0,0.3
15,1,0.04281009373070509,0.09749999316307485,0.9999085469859428,-8.812036621793311e-05,3.000872541310453,0.0483285897184896,0.0483285897184896,2.862276749106571,0.0,0.0,0.0,0.0,0.001,1.0,1000,100000.0,0.3
16,1,0.0478100959103554,0.09249999328372047,0.9999439295113798,-8.687382791580268e-05,-286.551590404623,0.032912175817951535,0.032912175817951535,-212.81611015407634,0.0,0.0,0.0,0.0,0.001,1.0,1000,100000.0,0.3
17,1,0.04781009787055837,0.09749999776124645,0.9999687994550075,-2.8957794373860027e-05,-286.8155423583851,0.014318879911743318,0.014318879911743318,-213.01267041494106,0.0,0.0,0.0,0.0,0.001,1.0,1000,100000.0,0.3
18,1,0.04281009373073345,0.1025000068369574,0.9999085476252453,8.812108369183713e-05,3.0008724375792872,-0.04832834427422531,-0.04832834427422531,2.8622767221361483,0.0,0.0,0.0,0.0,0.001,1.0,1000,100000.0,0.3
19,1,0.042810088141282954,0.10750002051084781,0.9998387744382005,0.0002643627341663835,3.2799760089514955,-0.06476106895150967,-0.06476106895150967,3.0701172722915993,0.0,0.0,0.0,0.0,0.001,1.0,1000,100000.0,0.3
20,1,0.04781009787057541,0.10250000223877456,0.9999687998367847,2.8958277686094713e-05,-286.81554253377976,-0.014318672487275206,-0.014318672487275206,-213.01267052651718,0.0,0.0,0.0,0.0,0.001,1.0,1000,100000.0,0.3
21,1,0.04781009591040611,0.1075000067163069,0.999943930656707,8.687444507379035e-05,-286.551592748469,-0.03323159159857296,-0.03323159159857296,-212.8161129297711,0.0,0.0,0.0,0.0,0.001,1.0,1000,100000.0,0.3
22,1,0.04281006227357348,0.11250006506297525,0.9995115628845321,0.0008354253830026564,3.959956849810146,-0.0310750092885539,-0.0310750092885539,3.8856500780137586,0.0,0.0,0.0,0.0,0.001,1.0,1000,100000.0,0.3
23,1,0.042810016127609166,0.11750014049317264,0.9989269130968651,0.0018013047846086544,4.007063975290739,-0.020665189246015174,-0.020665189246015174,3.920694479459455,0.0,0.0,0.0,0.0,0.001,1.0,1000,100000.0,0.3
24,1,0.047810087162701666,0.11250004989775066,0.9998327297205111,0.000639683427634943,-285.68805877395613,-0.035392992038615276,-0.035392992038615276,-211.75066152908562,0.0,0.0,0.0,0.0,0.001,1.0,1000,100000.0,0.3
25,1,0.04781007162744361,0.11750013178304088,0.9996351965742671,0.0016873835946940292,-285.6372712469505,-0.03268370995053878,-0.03268370995053878,-211.71287484827542,0.0,0.0,0.0,0.0,0.001,1.0,1000,100000.0,0.3
26,1,0.05281013875382866,0.08249986171175713,1.0004918553644562,-0.0017730998769923184,4.070049473557255,-0.05068492022922934,-0.05068492022922934,4.021863253853366,0.0,0.0,0.0,0.0,0.001,1.0,1000,100000.0,0.3
27,1,0.052810123707151664,0.08749994975440106,1.000302419449364,-0.0006452938152336782,3.770683035665423,-0.07420422650340507,-0.07420422650340507,3.7989666674751037,0.0,0.0,0.0,0.0,0.001,1.0,1000,100000.0,0.3
28,1,0.057810215688668315,0.08249984229179275,1.0014675775157909,-0.0020208333458373727,-285.9451485823302,-0.06557833589341937,-0.06557833589341937,-212.00640104979075,0.0,0.0,0.0,0.0,0.001,1.0,1000,100000.0,0.3
29,1,0.05781017019177598,0.08749993608455983,1.0008933012179968,-0.0008171471156407294,-286.1975957678673,-0.09563032083359582,-0.09563032083359582,-212.1943526336008,0.0,0.0,0.0,0.0,0.001,1.0,1000,100000.0,0.3
30,1,0.05281011215212045,0.09249999533180192,1.000156027670112,-6.104282173242083e-05,2.864774407575712,-0.0736775579818952,-0.0736775579818952,2.741775448774143,0.0,0.0,0.0,0.0,0.001,1.0,1000,100000.0,0.3
31,1,0.052810104088716954,0.09749999844391867,1.0000526795747766,-2.0347955147911732e-05,2.631532551045262,-0.042864459054570925,-0.042864459054570925,2.568084442032484,0.0,0.0,0.0,0.0,0.001,1.0,1000,100000.0,0.3
32,1,0.05781013565965906,0.09249998723573372,1.0004560861611937,-0.00016147726099730676,-286.7847749307035,-0.09294483864287503,-0.09294483864287503,-212.84780491394352,0.0,0.0,0.0,0.0,0.001,1.0,1000,100000.0,0.3
33,1,0.05781011209228916,0.09749999574519203,1.0001559316580908,-5.3826933131001e-05,-286.9837814263668,-0.06908150859691828,-0.06908150859691828,-212.99600170713,0.0,0.0,0.0,0.0,0.001,1.0,1000,100000.0,0.3
34,1,0.052810104088741816,0.10250000155602422,1.0000526801412954,2.0346655731701947e-05,2.631533507568003,0.0428648066871765,0.0428648066871765,2.568085103918873,0.0,0.0,0.0,0.0,0.001,1.0,1000,100000.0,0.3
35,1,0.05281011215219573,0.10750000466812407,1.0001560293696716,6.104114574355068e-05,2.864776208573709,0.07345711619211936,0.07345711619211936,2.7417759994952693,0.0,0.0,0.0,0.0,0.001,1.0,1000,100000.0,0.3
36,1,0.057810112092338516,0.10250000425461592,1.0001559327654548,5.3822608737997625e-05,-286.9837807868008,0.06908213205062912,0.06908213205062912,-212.99600138110992,0.0,0.0,0.0,0.0,0.001,1.0,1000,100000.0,0.3
37,1,0.05781013565980741,0.10750001276401956,1.0004560894833165,0.0001614717163911128,-286.7847760414983,0.09232964049851855,0.09232964049851855,-212.84780800392534,0.0,0.0,0.0,0.0,0.001,1.0,1000,100000.0,0.3
38,1,0.05281012370722694,0.11250005024553693,1.0003024211504374,0.0006452924143493019,3.7706868103961892,0.07420394091132496,0.07420394091132496,3.798969571768222,0.0,0.0,0.0,0.0,0.001,1.0,1000,100000.0,0.3
39,1,0.05281013875385377,0.1175001382882215,1.0004918559354599,0.0017730994029042863,4.070052159271116,0.050684579384625984,0.050684579384625984,4.021865347185799,0.0,0.0,0.0,0.0,0.001,1.0,1000,100000.0,0.3
40,1,0.05781017019192429,0.11250006391523525,1.000893304538581,0.0008171424963298949,-286.1975928381649,0.09562991458453315,0.09562991458453315,-212.19435055319357,0.0,0.0,0.0,0.0,0.001,1.0,1000,100000.0,0.3
41,1,0.05781021568871747,0.11750015770813808,1.0014675786185399,0.00202083179736301,-285.9451465795917,0.0655778803010863,0.0655778803010863,-212.00639965964697,0.0,0.0,0.0,0.0,0.001,1.0,1000,100000.0,0.3
42,1,0.06281021268948359,0.08749990594503135,1.001458099666823,-0.0012046535048873689,2.740600667036954,-0.0999378576353837,-0.0999378576353837,2.7120706524635603,0.0,0.0,0.0,0.0,0.001,1.0,1000,100000.0,0.3
43,1,0.06281018561563567,0.09249994515849722,1.0010945938287916,-0.0007063246010220105,3.578012311921972,-0.14415789813359495,-0.14415789813359495,3.552027746062859,0.0,0.0,0.0,0.0,0.001,1.0,1000,100000.0,0.3
44,1,0.06281016689850649,0.09749998171950565,1.0008575057138682,-0.00023544132468120277,3.90321607487318,-0.07993689939768456,-0.07993689939768456,3.794201530491248,0.0,0.0,0.0,0.0,0.001,1.0,1000,100000.0,0.3
45,1,0.0678102581675404,0.09249987395155745,1.0020101455167671,-0.0016171870822113004,-286.0394849388496,-0.08500595565287503,-0.08500595565287503,-211.8975579426186,0.0,0.0,0.0,0.0,0.001,1.0,1000,100000.0,0.3
46,1,0.06781026190653779,0.09749995798394573,1.0020529058013226,-0.000539060297778433,-285.73419679525585,-0.03258312749091163,-0.03258312749091163,-211.67020473172568,0.0,0.0,0.0,0.0,0.001,1.0,1000,100000.0,0.3
47,1,0.06281016689861776,0.10250001828047675,1.0008575082234088,0.00023544094350706353,3.9032177464838784,0.07993944151258645,0.07993944151258645,3.794202740769577,0.0,0.0,0.0,0.0,0.001,1.0,1000,100000.0,0.3
48,1,0.0628101856159693,0.10750005484152507,1.0010946013574014,0.0007063251380965486,3.5780032016916623,0.1415437567802022,0.1415437567802022,3.552012408962242,0.0,0.0,0.0,0.0,0.001,1.0,1000,100000.0,0.3
49,1,0.06781026190674178,0.10250004201646705,1.0020529103971028,0.0005390694898602411,-285.7341949576552,0.032585952728176736,0.032585952728176736,-211.67020310859232,0.0,0.0,0.0,0.0,0.001,1.0,1000,100000.0,0.3
50,1,0.06781025816815213,0.10750012604910004,1.0020101593039983,0.001617201735328781,-286.039508797084,0.07898266649633293,0.07898266649633293,-211.89759251983344,0.0,0.0,0.0,0.0,0.001,1.0,1000,100000.0,0.3
51,1,0.06281021268981685,0.11250009405500044,1.0014581071878728,0.0012046542467065448,2.740605182782121,0.09993880986656889,0.09993880986656889,2.7120725930135814,0.0,0.0,0.0,0.0,0.001,1.0,1000,100000.0,0.3
