particle_id,object_id,pos_x,pos_y,vel_x,vel_y,stress_xx,stress_xy,stress_yx,stress_yy,strain_xx,strain_xy,strain_yx,strain_yy,volume,mass,density,youngs_modulus,poisson_ratio
0,1,0.03814728249751252,0.08749814588935788,0.9832014027128001,-0.011005006591775255,-1189.2186056421879,-0.9677212353908875,-0.9677212353908875,-868.8830942685728,0.0,0.0,0.0,0.0,0.001,1.0,1000,100000.0,0.3
1,1,0.03314582098273019,0.09249956964514688,0.9744623335623368,-0.002390873311401554,74.80227449468921,0.07407830015257214,0.07407830015257214,64.85170503889128,0.0,0.0,0.0,0.0,0.001,1.0,1000,100000.0,0.3
2,1,0.033146622614335985,0.09749985654077735,0.9793028187189396,-0.000797046808170032,75.11819890693299,0.685436622884558,0.685436622884558,65.08679268798255,0.0,0.0,0.0,0.0,0.001,1.0,1000,100000.0,0.3
3,1,0.03814855022898376,0.09249949127298622,0.990759841579454,-0.0030519790597512172,-1195.4592888079187,0.4767447387824727,0.4767447387824727,-879.0003495859638,0.0,0.0,0.0,0.0,0.001,1.0,1000,100000.0,0.3
4,1,0.03814887431862571,0.09749983042284945,0.9926280428765483,-0.0010173468858414969,-1195.8600846451725,0.84454086958036,0.84454086958036,-879.2990514731233,0.0,0.0,0.0,0.0,0.001,1.0,1000,100000.0,0.3
5,1,0.03314662261930981,0.10250014343110961,0.9793028584324547,0.0007967358747981922,75.11771341140398,-0.6853937338270384,-0.6853937338270384,65.08620477935372,0.0,0.0,0.0,0.0,0.001,1.0,1000,100000.0,0.3
6,1,0.033145820997655534,0.10750043030823543,0.9744624527729001,0.002390359600058175,74.79964635253201,-0.11915318023461291,-0.11915318023461291,64.8483679630564,0.0,0.0,0.0,0.0,0.001,1.0,1000,100000.0,0.3
7,1,0.038148874315438196,0.10250016956501175,0.9926279821877978,0.0010171936087718058,-1195.8607102177075,-0.8445176467313975,-0.8445176467313975,-879.2998388978956,0.0,0.0,0.0,0.0,0.001,1.0,1000,100000.0,0.3
8,1,0.03814855021942276,0.10750050869731494,0.990759659547797,0.003051611270436758,-1195.462457988198,-0.5278064256144557,-0.5278064256144557,-879.0044478173158,0.0,0.0,0.0,0.0,0.001,1.0,1000,100000.0,0.3
9,1,0.03814728250082491,0.11250185404941329,0.9832014162428312,0.011004201134957281,-1189.2200268823824,0.96782389430224,0.96782389430224,-868.8849495160342,0.0,0.0,0.0,0.0,0.001,1.0,1000,100000.0,0.3
10,1,0.043148556293072425,0.08249740084178211,0.9907878726968676,-0.01551798318344958,73.13341204596652,0.18004858834005458,0.18004858834005458,71.77907801870066,0.0,0.0,0.0,0.0,0.001,1.0,1000,100000.0,0.3
11,1,0.043149369185990126,0.08749878394227571,0.9955301533374001,-0.007310540244623504,73.26067558992031,0.46550795382291704,0.46550795382291704,71.8547854041435,0.0,0.0,0.0,0.0,0.001,1.0,1000,100000.0,0.3
12,1,0.04814956250222242,0.08249757341926658,0.9967342698455881,-0.01446239616649727,-1202.4825004544114,0.9103382381854233,0.9103382381854233,-877.1371820353423,0.0,0.0,0.0,0.0,0.001,1.0,1000,100000.0,0.3
13,1,0.04814984192627938,0.08749907057914368,0.9983860045074705,-0.005587780455718997,-1202.6751451769685,0.8909114950009307,0.8909114950009307,-877.3112039624338,0.0,0.0,0.0,0.0,0.001,1.0,1000,100000.0,0.3
14,1,0.04314982019295482,0.09249960660775775,0.9981428771193168,-0.002405272742956961,61.44742684310334,1.0896948895917835,1.0896948895917835,57.325907164995684,0.0,0.0,0.0,0.0,0.001,1.0,1000,100000.0,0.3
15,1,0.043149909309887866,0.09749986887055645,0.9986259868987298,-0.0008017465214178995,56.82507772451976,0.8247211187892874,0.8247211187892874,53.88350066054869,0.0,0.0,0.0,0.0,0.001,1.0,1000,100000.0,0.3
16,1,0.048149998693280315,0.09249986433162853,0.9993097714283903,-0.000863329091705031,-1217.645729659861,0.6914028507106552,0.6914028507106552,-896.1387243069056,0.0,0.0,0.0,0.0,0.001,1.0,1000,100000.0,0.3
17,1,0.048150032807995825,0.09749995477819125,0.9995056231572933,-0.00028776706441602923,-1221.7701949286381,0.30099648880028695,0.30099648880028695,-899.2102404990987,0.0,0.0,0.0,0.0,0.001,1.0,1000,100000.0,0.3
18,1,0.04314990929892869,0.10250013112236009,0.9986258302795229,0.0008016439803524821,56.824547306258225,-0.8247569462727081,-0.8247569462727081,53.88279657021507,0.0,0.0,0.0,0.0,0.001,1.0,1000,100000.0,0.3
19,1,0.043149820160076915,0.10750039336527692,0.9981424072694451,0.00240492316004865,61.444990019719704,-1.1290053978059393,-1.1290053978059393,57.322659430734824,0.0,0.0,0.0,0.0,0.001,1.0,1000,100000.0,0.3
20,1,0.04815003278976813,0.10250004521224604,0.9995053772410534,0.00028764566490747375,-1221.770570024582,-0.30102333157105304,-0.30102333157105304,-899.2107456183268,0.0,0.0,0.0,0.0,0.001,1.0,1000,100000.0,0.3
21,1,0.04814999863859684,0.10750013563449613,0.9993090336802287,0.0008629172816572262,-1217.6467387965913,-0.7046660764290007,-0.7046660764290007,-896.1400837244229,0.0,0.0,0.0,0.0,0.001,1.0,1000,100000.0,0.3
22,1,0.04314936917534661,0.11250121600773655,0.9955300034961384,0.007309867203839719,73.25953982501878,-0.4652469466533256,-0.4652469466533256,71.85311184735154,0.0,0.0,0.0,0.0,0.001,1.0,1000,100000.0,0.3
23,1,0.043148556348770344,0.11750259899432691,0.990788675402703,0.015515819789424522,73.08082317341264,-0.42531443848303685,-0.42531443848303685,71.70794915491096,0.0,0.0,0.0,0.0,0.001,1.0,1000,100000.0,0.3
24,1,0.0481498419035548,0.11250092939429548,0.9983857039513554,0.005587440609060675,-1202.6760632790347,-0.8905596962327569,-0.8905596962327569,-877.312548036434,0.0,0.0,0.0,0.0,0.001,1.0,1000,100000.0,0.3
25,1,0.048149562579878895,0.11750242647046581,0.9967353355928384,0.014460963801034085,-1202.5532819630625,-1.1429197342568684,-1.1429197342568684,-877.2325620218954,0.0,0.0,0.0,0.0,0.001,1.0,1000,100000.0,0.3
26,1,0.05315078661415032,0.08249743294578017,1.0040125708764915,-0.015377534027662043,75.65068481421474,-0.9836569785121886,-0.9836569785121886,74.6089641954588,0.0,0.0,0.0,0.0,0.001,1.0,1000,100000.0,0.3
27,1,0.05315052953073742,0.0874990567487784,1.00253861851977,-0.005692458248433188,69.92648237827588,-1.2565109849677287,-1.2565109849677287,70.30342774667697,0.0,0.0,0.0,0.0,0.001,1.0,1000,100000.0,0.3
28,1,0.05815215463414259,0.08249707792550917,1.0120523765103457,-0.017496809144566788,-1210.1006916419688,-0.8283743916065612,-0.8283743916065612,-883.7992449156366,0.0,0.0,0.0,0.0,0.001,1.0,1000,100000.0,0.3
29,1,0.05815136631746888,0.08749882615196379,1.0074926508841258,-0.007001973326019794,-1214.078201821376,-1.3319494876120532,-1.3319494876120532,-886.8191773403211,0.0,0.0,0.0,0.0,0.001,1.0,1000,100000.0,0.3
30,1,0.05315032633880516,0.09249990142585399,1.0013551644520855,-0.0006382211707168158,53.252338009276166,-1.3048546733970015,-1.3048546733970015,51.051667911014185,0.0,0.0,0.0,0.0,0.001,1.0,1000,100000.0,0.3
31,1,0.053150177033225984,0.09749996713895118,1.0004621501202604,-0.00021277409494702043,48.40878418429432,-0.772290133011745,-0.772290133011745,47.44467426080059,0.0,0.0,0.0,0.0,0.001,1.0,1000,100000.0,0.3
32,1,0.05815075987876055,0.09249977511027829,1.0039604145593064,-0.0013170512374477256,-1224.552625874486,-1.5220118357070833,-1.5220118357070833,-898.6962858101879,0.0,0.0,0.0,0.0,0.001,1.0,1000,100000.0,0.3
33,1,0.058150335311432926,0.09749992502731616,1.0014555962817686,-0.00043911990327831263,-1227.9889389967298,-1.2520229747795308,-1.2520229747795308,-901.2553700339951,0.0,0.0,0.0,0.0,0.001,1.0,1000,100000.0,0.3
34,1,0.053150177017801246,0.10250003283917113,1.000461936205807,0.00021252614327754666,48.40899028273831,0.7723561391226407,0.7723561391226407,47.444745924606536,0.0,0.0,0.0,0.0,0.001,1.0,1000,100000.0,0.3
35,1,0.053150326292531885,0.10750009852794008,1.0013545227125895,0.0006376952014898125,53.252757802039774,1.2954072221839734,1.2954072221839734,51.051616338673114,0.0,0.0,0.0,0.0,0.001,1.0,1000,100000.0,0.3
36,1,0.05815033530566664,0.10250007493212773,1.0014554938640368,0.0004386809610960287,-1227.9885020739293,1.2521762908048824,1.2521762908048824,-901.2549465830468,0.0,0.0,0.0,0.0,0.001,1.0,1000,100000.0,0.3
37,1,0.058150759861464695,0.1075002248279311,1.0039601073285416,0.0013163849089502624,-1224.5527999853578,1.4989809342969163,1.4989809342969163,-898.6970094644541,0.0,0.0,0.0,0.0,0.001,1.0,1000,100000.0,0.3
38,1,0.05315052953039645,0.11250094324664014,1.002538580713702,0.005692444542080889,69.92699682524638,1.2569709988947932,1.2569709988947932,70.30326524452677,0.0,0.0,0.0,0.0,0.001,1.0,1000,100000.0,0.3
39,1,0.05315078673660185,0.11750256698075189,1.0040141698814669,0.01537659890698169,75.55915909784034,0.7362346945498975,0.7362346945498975,74.48513948703511,0.0,0.0,0.0,0.0,0.001,1.0,1000,100000.0,0.3
40,1,0.05815136636223091,0.11250117386387769,1.0074931361671933,0.007002273640233177,-1214.0779367419138,1.3324115733505957,1.3324115733505957,-886.819440646294,0.0,0.0,0.0,0.0,0.001,1.0,1000,100000.0,0.3
41,1,0.058152154814746296,0.1175029219984029,1.0120546544409652,0.017495852711875863,-1210.220961626241,0.5486455456853172,0.5486455456853172,-883.9613147060566,0.0,0.0,0.0,0.0,0.001,1.0,1000,100000.0,0.3
42,1,0.0631522812168793,0.08749825940088363,1.01334687960611,-0.010420060743260807,50.808577412596314,-1.9463018930731835,-1.9463018930731835,50.05032435675227,0.0,0.0,0.0,0.0,0.001,1.0,1000,100000.0,0.3
43,1,0.0631516759181118,0.09249895695533725,1.0094188075858332,-0.006338104133974387,65.33673817116754,-2.7549553161263045,-2.7549553161263045,65.20527573688953,0.0,0.0,0.0,0.0,0.001,1.0,1000,100000.0,0.3
44,1,0.06315134600992395,0.09749965232218785,1.0074918324771318,-0.002112656622498215,70.99204685696685,-1.5405788587017588,-1.5405788587017588,69.41699134817463,0.0,0.0,0.0,0.0,0.001,1.0,1000,100000.0,0.3
45,1,0.06815293110598751,0.09249764417334533,1.0166738642045259,-0.0141894597944393,-1214.5813927183515,-1.3458427963490465,-1.3458427963490465,-883.7779756347467,0.0,0.0,0.0,0.0,0.001,1.0,1000,100000.0,0.3
46,1,0.06815297138453986,0.09749921473806702,1.016838970853426,-0.0047296840724692845,-1209.5688582588598,-0.5923925058324483,-0.5923925058324483,-880.0413771628245,0.0,0.0,0.0,0.0,0.001,1.0,1000,100000.0,0.3
47,1,0.06315134602170108,0.10250034767170024,1.0074919354496563,0.0021125894637690607,70.99263383853261,1.5410346834346516,1.5410346834346516,69.41761290796954,0.0,0.0,0.0,0.0,0.001,1.0,1000,100000.0,0.3
48,1,0.0631516759534432,0.10750104304178416,1.0094191164647222,0.0063380837892925805,65.33290270391602,2.64975764514151,2.64975764514151,65.1996252774672,0.0,0.0,0.0,0.0,0.001,1.0,1000,100000.0,0.3
49,1,0.06815297141881858,0.10250078532610493,1.0168393342124753,0.004730346240320843,-1209.5683438467506,0.5928625873840893,0.5928625873840893,-880.0407858306661,0.0,0.0,0.0,0.0,0.001,1.0,1000,100000.0,0.3
50,1,0.06815293120879806,0.10750235593273878,1.016674953776679,0.014190581676518417,-1214.5903867613802,1.106762480800895,1.106762480800895,-883.7903602637773,0.0,0.0,0.0,0.0,0.001,1.0,1000,100000.0,0.3
51,1,0.06315228130906145,0.11250174067161843,1.0133479087999868,0.010421014303786799,50.80867346038948,1.9468750156512937,1.9468750156512937,50.05009534848662,0.0,0.0,0.0,0.0,0.001,1.0,1000,100000.0,0.3
