particle_id,object_id,pos_x,pos_y,vel_x,vel_y,stress_xx,stress_xy,stress_yx,stress_yy,strain_xx,strain_xy,strain_yx,strain_yy,volume,mass,density,youngs_modulus,poisson_ratio
0,1,0.03755198880753038,0.08749999204826711,0.9990751840731831,-0.0005998670398665306,-778.4367097408278,-0.5198101932892161,-0.5198101932892161,-572.7154094586487,0.0,0.0,0.0,0.0,0.001,1.0,1000,10000000.0,0.3
1,1,0.03255198267747686,0.09249999807302367,0.9986115773178507,-0.00013963241480381298,33.12041083029551,0.08892104072560039,0.08892104072560039,28.58205713039012,0.0,0.0,0.0,0.0,0.001,1.0,1000,10000000.0,0.3
2,1,0.0325519860340251,0.09749999935767562,0.9988673368633235,-4.654430596396081e-05,33.42339205780831,0.31198600743170096,0.31198600743170096,28.807681085775485,0.0,0.0,0.0,0.0,0.001,1.0,1000,10000000.0,0.3
3,1,0.03755199426725858,0.09249999793656134,0.9994895370870961,-0.00015503672881400418,-780.3075382026689,0.13943880567094713,0.13943880567094713,-576.3839252664263,0.0,0.0,0.0,0.0,0.001,1.0,1000,10000000.0,0.3
4,1,0.03755199575533561,0.09749999931218935,0.9996011252306808,-5.167892885143554e-05,-780.0321252373567,0.35460435957747183,0.35460435957747183,-576.1788308627603,0.0,0.0,0.0,0.0,0.001,1.0,1000,10000000.0,0.3
5,1,0.03255198603402716,0.1025000006423193,0.9988673371274662,4.654361294052327e-05,33.42339026673917,-0.31198269536856343,-0.31198269536856343,28.807679333407908,0.0,0.0,0.0,0.0,0.001,1.0,1000,10000000.0,0.3
6,1,0.03255198267748286,0.1075000019269678,0.9986115781103098,0.0001396313305120771,33.12040325492729,-0.09051001829779644,-0.09051001829779644,28.582048916101005,0.0,0.0,0.0,0.0,0.001,1.0,1000,10000000.0,0.3
7,1,0.037551995755337006,0.10250000068781011,0.9996011254302333,5.1678829584649574e-05,-780.0321263351963,-0.35460133976305874,-0.35460133976305874,-576.1788316739564,0.0,0.0,0.0,0.0,0.001,1.0,1000,10000000.0,0.3
8,1,0.0375519942672631,0.10750000206343739,0.9994895376857652,0.00015503654164838375,-780.3075455492386,-0.14110772136287886,-0.14110772136287886,-576.3839331412615,0.0,0.0,0.0,0.0,0.001,1.0,1000,10000000.0,0.3
9,1,0.03755198880753479,0.11250000795173168,0.9990751846713644,0.0005998668663555171,-778.4367118049485,0.5198113422300071,0.5198113422300071,-572.7154090907173,0.0,0.0,0.0,0.0,0.001,1.0,1000,10000000.0,0.3
10,1,0.04255199448231163,0.08249998927121625,0.9995077776517343,-0.0008072903285765231,31.309445528133487,0.11505417328357256,0.11505417328357256,30.466765319212087,0.0,0.0,0.0,0.0,0.001,1.0,1000,10000000.0,0.3
11,1,0.04255199818013692,0.08749999499416361,0.9997864685791829,-0.0003786577341679076,30.66933874599503,0.2411505054931189,0.2411505054931189,29.990110812914658,0.0,0.0,0.0,0.0,0.001,1.0,1000,10000000.0,0.3
12,1,0.04755199881254298,0.08249998985134392,0.9998342845126228,-0.0007647839092683341,-782.7494054163366,0.05682083518298689,0.05682083518298689,-575.277117293296,0.0,0.0,0.0,0.0,0.001,1.0,1000,10000000.0,0.3
13,1,0.04755200004652786,0.08749999610494145,0.9999273143272515,-0.0002955930746048392,-783.3906884402592,0.1729422159178263,0.1729422159178263,-575.7546484180004,0.0,0.0,0.0,0.0,0.001,1.0,1000,10000000.0,0.3
14,1,0.0425520002410947,0.09249999839172826,0.9999410588166804,-0.00012325600534891153,25.3770945919706,0.5018580075795281,0.5018580075795281,23.773241833409458,0.0,0.0,0.0,0.0,0.001,1.0,1000,10000000.0,0.3
15,1,0.042552000665183186,0.09749999946391186,0.999971548360422,-4.108528820259911e-05,23.04199515052076,0.38708470904287595,0.38708470904287595,22.034337614809736,0.0,0.0,0.0,0.0,0.001,1.0,1000,10000000.0,0.3
16,1,0.04755200073588654,0.09249999942380698,0.9999790935084997,-4.574820804932823e-05,-790.1280349135432,0.20998532453960436,0.20998532453960436,-583.9183604433208,0.0,0.0,0.0,0.0,0.001,1.0,1000,10000000.0,0.3
17,1,0.04755200088061898,0.09749999980793903,0.9999896220743236,-1.5249372064879729e-05,-792.440971177524,0.09107051226531503,0.09107051226531503,-585.6407599715864,0.0,0.0,0.0,0.0,0.001,1.0,1000,10000000.0,0.3
18,1,0.04255200066518413,0.10250000053608932,0.9999715485011086,4.1085450950889956e-05,23.041994818975304,-0.3870838697382505,-0.3870838697382505,22.03433752629326,0.0,0.0,0.0,0.0,0.001,1.0,1000,10000000.0,0.3
19,1,0.04255200024109773,0.10750000160827322,0.9999410592387217,0.00012325621779057342,25.37708985595175,-0.503146136461409,-0.503146136461409,23.77323654371854,0.0,0.0,0.0,0.0,0.001,1.0,1000,10000000.0,0.3
20,1,0.0475520008806196,0.10250000019206164,0.9999896221616686,1.5249476596707377e-05,-792.4409717082362,-0.09106981804234336,-0.09106981804234336,-585.6407603195458,0.0,0.0,0.0,0.0,0.001,1.0,1000,10000000.0,0.3
21,1,0.04755200073588845,0.10750000057619402,0.9999790937705055,4.5748339847597624e-05,-790.1280378049039,-0.2104370116349529,-0.2104370116349529,-583.9183632316897,0.0,0.0,0.0,0.0,0.001,1.0,1000,10000000.0,0.3
22,1,0.04255199818014012,0.11250000500583775,0.9997864690017986,0.0003786579114262834,30.669337984572802,-0.24115131902468093,-0.24115131902468093,29.990111074948615,0.0,0.0,0.0,0.0,0.001,1.0,1000,10000000.0,0.3
23,1,0.042551994482312665,0.1175000107287843,0.9995077777941282,0.0008072903857749139,31.309445242462555,-0.11505499290427494,-0.11505499290427494,30.46676593552684,0.0,0.0,0.0,0.0,0.001,1.0,1000,10000000.0,0.3
24,1,0.0475520000465299,0.11250000389505933,0.999927314590848,0.00029559318237519115,-783.3906892827275,-0.17294296157147104,-0.17294296157147104,-575.7546482364997,0.0,0.0,0.0,0.0,0.001,1.0,1000,10000000.0,0.3
25,1,0.04755199881254362,0.11750001014865637,0.9998342846046663,0.0007647839417163529,-782.749405769139,-0.056821587758933,-0.056821587758933,-575.2771167471526,0.0,0.0,0.0,0.0,0.001,1.0,1000,10000000.0,0.3
26,1,0.05255200410221446,0.08249998935236695,1.0002345096671958,-0.0008038169045953372,31.388621692266003,-0.46423244884730835,-0.46423244884730835,30.980921457998853,0.0,0.0,0.0,0.0,0.001,1.0,1000,10000000.0,0.3
27,1,0.05255200287338798,0.0874999961000704,1.000141965898017,-0.0002960617726832489,29.177935792169606,-0.6117592346383784,-0.6117592346383784,29.334687270144332,0.0,0.0,0.0,0.0,0.001,1.0,1000,10000000.0,0.3
28,1,0.05755201032718649,0.08249998780112833,1.0007061308819052,-0.0009218510821837666,-784.4890294990278,-0.7162379663748802,-0.7162379663748802,-577.0723826123833,0.0,0.0,0.0,0.0,0.001,1.0,1000,10000000.0,0.3
29,1,0.057552006636808845,0.08749999500686197,1.0004281275256088,-0.00037750970748418814,-786.6382071303037,-0.872053580349544,-0.872053580349544,-578.6728096811886,0.0,0.0,0.0,0.0,0.001,1.0,1000,10000000.0,0.3
30,1,0.05255200194865343,0.09249999960544386,1.0000722705773428,-3.163816861800647e-05,22.460870057495057,-0.5874738524167573,-0.5874738524167573,21.44300487124576,0.0,0.0,0.0,0.0,0.001,1.0,1000,10000000.0,0.3
31,1,0.0525520013280113,0.09749999986848439,1.0000254236874866,-1.054613087950661e-05,20.898866385503435,-0.3400468636843247,-0.3400468636843247,20.279810483424285,0.0,0.0,0.0,0.0,0.001,1.0,1000,10000000.0,0.3
32,1,0.057552003861624325,0.0924999989572977,1.0002188856165983,-7.900432487057214e-05,-791.0501834574327,-0.7730733121038708,-0.7730733121038708,-583.4998751201991,0.0,0.0,0.0,0.0,0.001,1.0,1000,10000000.0,0.3
33,1,0.05755200200163214,0.09749999965243311,1.00007840512338,-2.6335040785137536e-05,-792.5707465330456,-0.5348389923893982,-0.5348389923893982,-584.6322096385705,0.0,0.0,0.0,0.0,0.001,1.0,1000,10000000.0,0.3
34,1,0.05255200132801224,0.10250000013151385,1.00002542381303,1.0545862609185861e-05,20.898869966829658,0.34004832840897614,0.34004832840897614,20.279812918852897,0.0,0.0,0.0,0.0,0.001,1.0,1000,10000000.0,0.3
35,1,0.052552001948656335,0.10750000039455358,1.0000722709539325,3.163781669646453e-05,22.460880782831733,0.587167334554847,0.587167334554847,21.443012152497804,0.0,0.0,0.0,0.0,0.001,1.0,1000,10000000.0,0.3
36,1,0.05755200200163396,0.10250000034755992,1.0000784053754441,2.6334096203700173e-05,-792.5707437831384,0.5348414740791377,0.5348414740791377,-584.6322082626347,0.0,0.0,0.0,0.0,0.001,1.0,1000,10000000.0,0.3
37,1,0.05755200386162997,0.1075000010426935,1.0002188863728,7.90031003455329e-05,-791.0501751753899,0.7722339916894141,0.7722339916894141,-583.4998709474061,0.0,0.0,0.0,0.0,0.001,1.0,1000,10000000.0,0.3
38,1,0.052552002873390916,0.11250000389992737,1.0001419662755902,0.0002960614756230157,29.17795011258067,0.6117583024100898,0.6117583024100898,29.334698239056742,0.0,0.0,0.0,0.0,0.001,1.0,1000,10000000.0,0.3
39,1,0.0525520041022156,0.11750001064763235,1.0002345097956395,0.0008038168009091855,31.388631887576313,0.46423123870487154,0.46423123870487154,30.980929355030362,0.0,0.0,0.0,0.0,0.001,1.0,1000,10000000.0,0.3
40,1,0.05755200663681438,0.1125000049931306,1.000428128280617,0.0003775086820588354,-786.6381947661091,0.8720521309024096,0.8720521309024096,-578.6728011397391,0.0,0.0,0.0,0.0,0.001,1.0,1000,10000000.0,0.3
41,1,0.057552010327188145,0.11750001219886885,1.0007061311304057,0.0009218507349019743,-784.4890211551743,0.7162362441225264,0.7162362441225264,-577.0723770647951,0.0,0.0,0.0,0.0,0.001,1.0,1000,10000000.0,0.3
42,1,0.06255200946290396,0.08749999273673971,1.000641186360162,-0.000547768892374279,21.048565486864213,-0.7490763679866619,-0.7490763679866619,20.886544293562235,0.0,0.0,0.0,0.0,0.001,1.0,1000,10000000.0,0.3
43,1,0.06255200775716517,0.09249999580135006,1.0005130099781614,-0.00031828339472478025,28.006377878534344,-1.0825381460364734,-1.0825381460364734,27.733758023783814,0.0,0.0,0.0,0.0,0.001,1.0,1000,10000000.0,0.3
44,1,0.0625520062668078,0.09749999860045139,1.0004011383241933,-0.0001060945140935403,30.62228067456292,-0.590205340563431,-0.590205340563431,29.681771191351157,0.0,0.0,0.0,0.0,0.001,1.0,1000,10000000.0,0.3
45,1,0.06755201358654303,0.09249999019957053,1.0009501063646633,-0.0007435572878390329,-784.2908547242575,-0.7256241398737809,-0.7256241398737809,-575.4507455936165,0.0,0.0,0.0,0.0,0.001,1.0,1000,10000000.0,0.3
46,1,0.067552014035473,0.09749999673319457,1.000985360998505,-0.0002478519210086067,-781.7044554026648,-0.2486138958358995,-0.2486138958358995,-573.5246969194377,0.0,0.0,0.0,0.0,0.001,1.0,1000,10000000.0,0.3
47,1,0.06255200626681176,0.10250000139954774,1.0004011388719316,0.00010609440507355245,30.622286423658885,0.5902149991025002,0.5902149991025002,29.681775190798618,0.0,0.0,0.0,0.0,0.001,1.0,1000,10000000.0,0.3
48,1,0.06255200775717723,0.1075000041986505,1.000513011621458,0.00031828347135342194,28.006387596061554,1.0791603179136375,1.0791603179136375,27.733759910735664,0.0,0.0,0.0,0.0,0.001,1.0,1000,10000000.0,0.3
49,1,0.06755201403548101,0.10250000326682156,1.000985362005153,0.0002478541065065148,-781.7044478621013,0.2486250390434837,0.2486250390434837,-573.5246903950529,0.0,0.0,0.0,0.0,0.001,1.0,1000,10000000.0,0.3
50,1,0.06755201358656479,0.10750000980045554,1.0009501093846394,0.0007435607632563355,-784.2908523225796,0.7177309327132769,0.7177309327132769,-575.4507531821066,0.0,0.0,0.0,0.0,0.001,1.0,1000,10000000.0,0.3
51,1,0.06255200946291661,0.11250000726326123,1.0006411879986032,0.0005477690162640529,21.0485808900207,0.7490800918741722,0.7490800918741722,20.886550098758814,0.0,0.0,0.0,0.0,0.001,1.0,1000,10000000.0,0.3
