particle_id,object_id,pos_x,pos_y,vel_x,vel_y,stress_xx,stress_xy,stress_yx,stress_yy,strain_xx,strain_xy,strain_yx,strain_yy,volume,mass,density,youngs_modulus,poisson_ratio
0,1,0.037849851218793765,0.08749983553888457,0.997192098846832,-0.0018556207288476356,-361.73907211575704,-0.09116640517358382,-0.09116640517358382,-267.912319718749,0.0,0.0,0.0,0.0,0.001,1.0,1000,100000.0,0.3
1,1,0.03284972325982013,0.09249995849238535,0.9957428275540345,-0.0004605510196354242,6.740381128087084,0.015893932053196596,0.015893932053196596,5.843813917299388,0.0,0.0,0.0,0.0,0.001,1.0,1000,100000.0,0.3
2,1,0.03284979252902583,0.09749998616404619,0.9965293343966458,-0.00015351868327891603,6.79220981886299,0.0634321776163505,0.0634321776163505,5.882408157108424,0.0,0.0,0.0,0.0,0.001,1.0,1000,100000.0,0.3
3,1,0.037849963003434337,0.09249995579853837,0.9984547916894869,-0.0005020358966887889,-362.2095030442471,0.03921809854400687,0.03921809854400687,-268.74136138389,0.0,0.0,0.0,0.0,0.001,1.0,1000,100000.0,0.3
4,1,0.037849993057955174,0.09749998526617122,0.998790071994164,-0.00016734548649707752,-362.1945286146381,0.0755589908800109,0.0755589908800109,-268.7302119459948,0.0,0.0,0.0,0.0,0.001,1.0,1000,100000.0,0.3
5,1,0.032849792529151815,0.10250001383562418,0.9965293368941894,0.00015351211362658215,6.792208704383369,-0.06343008667249961,-0.06343008667249961,5.8824070679236575,0.0,0.0,0.0,0.0,0.001,1.0,1000,100000.0,0.3
6,1,0.0328497232601979,0.107500041507098,0.99574283504673,0.0004605407603323305,6.74036254620894,-0.018159883767593494,-0.018159883767593494,5.843790186712039,0.0,0.0,0.0,0.0,0.001,1.0,1000,100000.0,0.3
7,1,0.037849993058050105,0.10250001473378731,0.99879007388351,0.00016734464601666897,-362.19452931542514,-0.0755571304376418,-0.0755571304376418,-268.7302124329522,0.0,0.0,0.0,0.0,0.001,1.0,1000,100000.0,0.3
8,1,0.037849963003719025,0.10750004420138119,0.9984547973575681,0.0005020343338712847,-362.2095233740229,-0.04159696618137391,-0.04159696618137391,-268.74138732248434,0.0,0.0,0.0,0.0,0.001,1.0,1000,100000.0,0.3
9,1,0.037849851219078384,0.11250016446104202,0.9971921045125649,0.0018556192852813803,-361.7390735442204,0.09116706742995406,0.09116706742995406,-267.9123195612043,0.0,0.0,0.0,0.0,0.001,1.0,1000,100000.0,0.3
10,1,0.042849964301640696,0.08249977246076391,0.9984650684139937,-0.0025792916395612816,6.4764155742119085,0.033944142435861066,0.033944142435861066,6.339434175719894,0.0,0.0,0.0,0.0,0.001,1.0,1000,100000.0,0.3
11,1,0.042850038588465644,0.08749989454012574,0.999296022080162,-0.0011977243651252996,6.411197473272639,0.049257123761856654,0.049257123761856654,6.290958185972518,0.0,0.0,0.0,0.0,0.001,1.0,1000,100000.0,0.3
12,1,0.04785005397479426,0.08249978670997593,0.9994762654651433,-0.0024142892867088975,-362.7539078069435,0.05855199293714927,0.05855199293714927,-268.52452469952226,0.0,0.0,0.0,0.0,0.001,1.0,1000,100000.0,0.3
13,1,0.04785007903121372,0.08749991918337961,0.9997577692230464,-0.0009163926426300697,-362.826766207991,0.05982722075980265,0.05982722075980265,-268.57869769147715,0.0,0.0,0.0,0.0,0.001,1.0,1000,100000.0,0.3
14,1,0.04285008019542908,0.09249996668502698,0.9997604924014035,-0.0003802016952059271,5.317832894527363,0.102426650692374,0.102426650692374,4.975715294461751,0.0,0.0,0.0,0.0,0.001,1.0,1000,100000.0,0.3
15,1,0.04285008912251753,0.09749998889503264,0.9998584790169531,-0.00012673343073788773,4.8716763462120705,0.07755084324375772,0.07755084324375772,4.643469313656882,0.0,0.0,0.0,0.0,0.001,1.0,1000,100000.0,0.3
16,1,0.0478500931379604,0.09249998906513024,0.9999161881778554,-0.00012558173187057685,-364.2148994847299,0.054201728049873575,0.054201728049873575,-270.2956214448122,0.0,0.0,0.0,0.0,0.001,1.0,1000,100000.0,0.3
17,1,0.04785009629508067,0.09749999635505847,0.999951523348813,-4.1860271236450986e-05,-364.6338693062601,0.023575831968219683,0.023575831968219683,-270.6076210247547,0.0,0.0,0.0,0.0,0.001,1.0,1000,100000.0,0.3
18,1,0.042850089122583826,0.10250001110504167,0.9998584803402036,0.0001267348768920634,4.8716761097983925,-0.07755026246343263,-0.07755026246343263,4.643469260672977,0.0,0.0,0.0,0.0,0.001,1.0,1000,100000.0,0.3
19,1,0.042850080195627895,0.10750003331507091,0.9997604963711672,0.00038020362345295746,5.3178177246496805,-0.10421836616377779,-0.10421836616377779,4.97569571695189,0.0,0.0,0.0,0.0,0.001,1.0,1000,100000.0,0.3
20,1,0.047850096295120395,0.10250000364499114,0.9999515241387801,4.1861267190754024e-05,-364.633869718211,-0.02357533863040256,-0.02357533863040256,-270.6076212830131,0.0,0.0,0.0,0.0,0.001,1.0,1000,100000.0,0.3
21,1,0.047850093138079045,0.10750001093493389,0.9999161905477487,0.00012558301386978343,-364.2149054976704,-0.05478794299147669,-0.05478794299147669,-270.29562863474456,0.0,0.0,0.0,0.0,0.001,1.0,1000,100000.0,0.3
22,1,0.042850038588664534,0.1125001054599565,0.9992960260520288,0.0011977259894127438,6.411196803714648,-0.049257598209244025,-0.049257598209244025,6.290958240023944,0.0,0.0,0.0,0.0,0.001,1.0,1000,100000.0,0.3
23,1,0.042849964301707295,0.11750022753926305,0.9984650697436197,0.0025792921567088416,6.4764118040823595,-0.03394961864582058,-0.03394961864582058,6.339429857532355,0.0,0.0,0.0,0.0,0.001,1.0,1000,100000.0,0.3
24,1,0.047850079031332676,0.11250008081667291,0.9997577715993483,0.0009163937063651497,-362.8267671585095,-0.059827624309949326,-0.059827624309949326,-268.5786979089954,0.0,0.0,0.0,0.0,0.001,1.0,1000,100000.0,0.3
25,1,0.04785005397483462,0.1175002132900409,0.9994762662743537,0.0024142895866102266,-362.7539172334821,-0.05856524395452642,-0.05856524395452642,-268.5245365397601,0.0,0.0,0.0,0.0,0.001,1.0,1000,100000.0,0.3
26,1,0.052850162441316316,0.08249977601787771,1.0006997846213481,-0.0025395591623266194,6.591526026133494,-0.07987142993139246,-0.07987142993139246,6.512092638932499,0.0,0.0,0.0,0.0,0.001,1.0,1000,100000.0,0.3
27,1,0.052850138296974936,0.08749991854509918,1.000431685604327,-0.0009255035124632128,6.1052896162180765,-0.1188535040649689,-0.1188535040649689,6.150090639451078,0.0,0.0,0.0,0.0,0.001,1.0,1000,100000.0,0.3
28,1,0.057850286365078614,0.08249974464327578,1.0020879729584597,-0.0028933737389339833,-363.27247162696926,-0.09929880918495217,-0.09929880918495217,-269.0134236831253,0.0,0.0,0.0,0.0,0.001,1.0,1000,100000.0,0.3
29,1,0.05785021326188401,0.0874998966282781,1.0012737312678333,-0.0011683581741226765,-363.67318708904224,-0.15027525261721533,-0.15027525261721533,-269.31172304340464,0.0,0.0,0.0,0.0,0.001,1.0,1000,100000.0,0.3
30,1,0.05285011969616279,0.09249999235655934,1.0002236506350581,-8.885613039316944e-05,4.638299482945758,-0.11863316380853031,-0.11863316380853031,4.440316451375055,0.0,0.0,0.0,0.0,0.001,1.0,1000,100000.0,0.3
31,1,0.05285010663883355,0.0974999974521504,1.0000756786887885,-2.961943471695583e-05,4.25475951877199,-0.06913470376190356,-0.06913470376190356,4.154700895748254,0.0,0.0,0.0,0.0,0.001,1.0,1000,100000.0,0.3
32,1,0.057850157690200396,0.0924999794656593,1.0006525976836163,-0.00022938597862143118,-364.6207271600728,-0.1484275984996206,-0.1484275984996206,-270.36837798930236,0.0,0.0,0.0,0.0,0.001,1.0,1000,100000.0,0.3
33,1,0.0578501196499568,0.09749999315509722,1.0002245706826718,-7.646443177738428e-05,-364.9412098807327,-0.11159165906342568,-0.11159165906342568,-270.6070365281074,0.0,0.0,0.0,0.0,0.001,1.0,1000,100000.0,0.3
34,1,0.05285010663889209,0.10250000254771506,1.0000756798629427,2.9616724240090533e-05,4.2547617494963665,0.06913550172149098,0.06913550172149098,4.154702446660369,0.0,0.0,0.0,0.0,0.001,1.0,1000,100000.0,0.3
35,1,0.052850119696338994,0.10750000764326689,1.0002236541575298,8.885265027948557e-05,4.638303270808644,0.11822661502296235,0.11822661502296235,4.440317204034288,0.0,0.0,0.0,0.0,0.001,1.0,1000,100000.0,0.3
36,1,0.0578501196500716,0.10250000684445414,1.000224572958827,7.645547924641245e-05,-364.94120841737094,0.11159310159032242,0.11159310159032242,-270.6070357722597,0.0,0.0,0.0,0.0,0.001,1.0,1000,100000.0,0.3
37,1,0.05785015769054505,0.1075000205337656,1.0006526045121427,0.00022937453159619362,-364.62073085939363,0.1473081764557214,0.1473081764557214,-270.36838658458703,0.0,0.0,0.0,0.0,0.001,1.0,1000,100000.0,0.3
38,1,0.05285013829715118,0.11250008145475562,1.0004316891307279,0.0009255006067761298,6.105298375589192,0.1188528280057321,0.1188528280057321,6.150097380690704,0.0,0.0,0.0,0.0,0.001,1.0,1000,100000.0,0.3
39,1,0.05285016244137535,0.11750022398207254,1.000699785807227,0.0025395581336175033,6.591523736927716,0.07985832390086844,0.07985832390086844,6.5120860569756935,0.0,0.0,0.0,0.0,0.001,1.0,1000,100000.0,0.3
40,1,0.05785021326222855,0.11250010337124361,1.001273738092443,0.0011683486448387742,-363.6731804207556,0.1502743027917897,0.1502743027917897,-269.31171829527256,0.0,0.0,0.0,0.0,0.001,1.0,1000,100000.0,0.3
41,1,0.057850286365192904,0.11750025535656336,1.0020879752228908,0.002893370523399069,-363.27247000003746,0.0992935081444246,0.0992935081444246,-269.01342444577546,0.0,0.0,0.0,0.0,0.001,1.0,1000,100000.0,0.3
42,1,0.06285028338502721,0.08749984774230646,1.0021010230365897,-0.001724395400060818,4.437551754816064,-0.16260751565309178,-0.16260751565309178,4.389131647122134,0.0,0.0,0.0,0.0,0.001,1.0,1000,100000.0,0.3
43,1,0.06285023847366757,0.09249991096403296,1.0015653610971713,-0.0010149063412241356,5.781961771220596,-0.23421938629734618,-0.23421938629734618,5.743503024930117,0.0,0.0,0.0,0.0,0.001,1.0,1000,100000.0,0.3
44,1,0.06285020834506555,0.09749997032136508,1.0012284043797468,-0.00033830156776476196,6.304861811685616,-0.13005393927407857,-0.13005393927407857,6.1328987293893515,0.0,0.0,0.0,0.0,0.001,1.0,1000,100000.0,0.3
45,1,0.0678503550320065,0.09249979576529042,1.0028631707172304,-0.002317853158081643,-363.4544277977062,-0.1352323830022021,-0.1352323830022021,-268.8585117460547,0.0,0.0,0.0,0.0,0.001,1.0,1000,100000.0,0.3
46,1,0.06785036075671401,0.09749993192197762,1.0029199243300544,-0.0007726135377444606,-362.9672154212208,-0.05263819709937753,-0.05263819709937753,-268.49566517677977,0.0,0.0,0.0,0.0,0.001,1.0,1000,100000.0,0.3
47,1,0.06285020834532556,0.10250002967859477,1.0012284095762678,0.000338300798318571,6.30486575997056,0.13005984726328332,0.13005984726328332,6.132901607864044,0.0,0.0,0.0,0.0,0.001,1.0,1000,100000.0,0.3
48,1,0.06285023847444797,0.10750008903602222,1.0015653766866983,0.0010149075199028651,5.781936422190992,0.22942488593113905,0.22942488593113905,5.743461714303864,0.0,0.0,0.0,0.0,0.001,1.0,1000,100000.0,0.3
49,1,0.06785036075719066,0.10250006807897603,1.0029199338450026,0.000772632287462033,-362.967211207541,0.05264472547898409,0.05264472547898409,-268.4956614405546,0.0,0.0,0.0,0.0,0.001,1.0,1000,100000.0,0.3
50,1,0.06785035503343585,0.1075002042362305,1.0028631992616492,0.0023178831316268246,-363.45449193873554,0.12420343152606042,0.12420343152606042,-268.8586036633023,0.0,0.0,0.0,0.0,0.001,1.0,1000,100000.0,0.3
51,1,0.06285028338580667,0.11250015225777052,1.0021010386064992,0.0017243970005950111,4.437562400682533,0.16260971681641134,0.16260971681641134,4.389136287408897,0.0,0.0,0.0,0.0,0.001,1.0,1000,100000.0,0.3
