particle_id,object_id,pos_x,pos_y,vel_x,vel_y,stress_xx,stress_xy,stress_yx,stress_yy,strain_xx,strain_xy,strain_yx,strain_yy,volume,mass,density,youngs_modulus,poisson_ratio
0,1,0.03801891880733896,0.0874992204966536,0.9911139817087052,-0.005851160323140698,-779.6019164293785,-0.4174750435679646,-0.4174750435679646,-573.5591629606542,0.0,0.0,0.0,0.0,0.001,1.0,1000,100000.0,0.3
1,1,0.03301830784106987,0.09249981104808819,0.9865013775545336,-0.001363643109881666,31.656830092972932,0.05159874779028337,0.05159874779028337,27.452955908397932,0.0,0.0,0.0,0.0,0.001,1.0,1000,100000.0,0.3
2,1,0.03301864067758993,0.0974999370145966,0.9890294432342736,-0.00045456796123510596,31.84321098573987,0.29369032448553845,0.29369032448553845,27.591716861744814,0.0,0.0,0.0,0.0,0.001,1.0,1000,100000.0,0.3
3,1,0.038019450146255296,0.09249978794291774,0.9951133295923819,-0.0016061510003199495,-782.047236742111,0.19533459851446777,0.19533459851446777,-577.6642950659976,0.0,0.0,0.0,0.0,0.001,1.0,1000,100000.0,0.3
4,1,0.03801958927610929,0.09749992931409956,0.99613672500127,-0.0005353870663059998,-782.1104193901579,0.3568893960859093,0.3568893960859093,-577.7113865828846,0.0,0.0,0.0,0.0,0.001,1.0,1000,100000.0,0.3
5,1,0.033018640679105885,0.10250006297980725,0.9890294593042203,0.00045448978300383205,31.843144978760957,-0.2936711312454417,-0.2936711312454417,27.591639638263967,0.0,0.0,0.0,0.0,0.001,1.0,1000,100000.0,0.3
6,1,0.033018307845617496,0.10750018894276603,0.9865014257711693,0.0013635127294856432,31.6563743129891,-0.0671675184299897,-0.0671675184299897,27.45237810570157,0.0,0.0,0.0,0.0,0.001,1.0,1000,100000.0,0.3
7,1,0.03801958927646254,0.10250007068419782,0.9961367196401935,0.0005353557992584366,-782.1104998686296,-0.35687482102798945,-0.35687482102798945,-577.7114839869229,0.0,0.0,0.0,0.0,0.001,1.0,1000,100000.0,0.3
8,1,0.03801945014731513,0.1075002120529501,0.995113313512713,0.001606072807517236,-782.0477666650338,-0.2123259521834046,-0.2123259521834046,-577.6649747178121,0.0,0.0,0.0,0.0,0.001,1.0,1000,100000.0,0.3
9,1,0.038018918809318666,0.11250077949605948,0.9911139919226533,0.005851008358711749,-779.602107295877,0.4174864177020463,0.4174864177020463,-573.559393202924,0.0,0.0,0.0,0.0,0.001,1.0,1000,100000.0,0.3
10,1,0.043019453618472994,0.08249891275904105,0.9951285507056635,-0.008207411523670603,30.73126616296907,0.1016715384967573,0.1016715384967573,30.133846561194773,0.0,0.0,0.0,0.0,0.001,1.0,1000,100000.0,0.3
11,1,0.04301979987338309,0.08749949375676151,0.997693169907839,-0.0038380826401182458,30.621290735379073,0.21304145976084457,0.21304145976084457,30.043048508180576,0.0,0.0,0.0,0.0,0.001,1.0,1000,100000.0,0.3
12,1,0.04801987781453917,0.08249898339341531,0.9983055713374742,-0.007660885719980944,-784.805968828691,0.3239933553745752,0.3239933553745752,-576.7414719220153,0.0,0.0,0.0,0.0,0.001,1.0,1000,100000.0,0.3
13,1,0.04801999573998389,0.08749961290057139,0.9991866702180163,-0.0029318236114247633,-785.0052788922374,0.33573241398806103,0.33573241398806103,-576.9039311699762,0.0,0.0,0.0,0.0,0.001,1.0,1000,100000.0,0.3
14,1,0.04301999289999466,0.09249983819086811,0.9991165675587868,-0.0012400944086163614,25.556021753557634,0.4709273283238364,0.4709273283238364,23.872700046433316,0.0,0.0,0.0,0.0,0.001,1.0,1000,100000.0,0.3
15,1,0.04302003269777845,0.09749994606396183,0.9993987343144738,-0.0004133606204790203,23.539265165592905,0.35604322950710965,0.35604322950710965,22.370819843256292,0.0,0.0,0.0,0.0,0.001,1.0,1000,100000.0,0.3
16,1,0.048020062034691925,0.09249994573536745,0.999681169029915,-0.0004255686788276819,-791.4291922871835,0.2765483874922046,0.2765483874922046,-584.9276975800198,0.0,0.0,0.0,0.0,0.001,1.0,1000,100000.0,0.3
17,1,0.04802007669959673,0.09749998191202157,0.9997890811141491,-0.00014185324328579721,-793.2682934138325,0.12030164451190895,0.12030164451190895,-586.297259066248,0.0,0.0,0.0,0.0,0.001,1.0,1000,100000.0,0.3
18,1,0.04302003269700786,0.10250005393563645,0.9993987085778264,0.0004133436397594723,23.539199318986814,-0.3560451850821412,-0.3560451850821412,22.370733571441733,0.0,0.0,0.0,0.0,0.001,1.0,1000,100000.0,0.3
19,1,0.04301999289768251,0.107500161806276,0.9991164903496218,0.001240024073490993,25.555624171163963,-0.4838618163290875,-0.4838618163290875,23.8721726034946,0.0,0.0,0.0,0.0,0.001,1.0,1000,100000.0,0.3
20,1,0.04802007669775027,0.10250001808695433,0.9997890362293568,0.00014182740845748306,-793.2683467517809,-0.12030277395076226,-0.12030277395076226,-586.2973289818077,0.0,0.0,0.0,0.0,0.001,1.0,1000,100000.0,0.3
21,1,0.04802006202915217,0.10750005426029277,0.9996810343756238,0.0004254751670233247,-791.4293594661212,-0.28083332634955127,-0.28083332634955127,-584.9279169517584,0.0,0.0,0.0,0.0,0.001,1.0,1000,100000.0,0.3
22,1,0.04301979987307982,0.11250050623809332,0.9976931421206718,0.003837959722953309,30.621145528795584,-0.21302014305614717,-0.21302014305614717,30.04283753709848,0.0,0.0,0.0,0.0,0.001,1.0,1000,100000.0,0.3
23,1,0.043019453623724564,0.11750108722128258,0.9951286731366561,0.008207003398669874,30.71278636027412,-0.17163339137045577,-0.17163339137045577,30.10896622715839,0.0,0.0,0.0,0.0,0.001,1.0,1000,100000.0,0.3
24,1,0.04801999573786621,0.11250038709633851,0.9991866117141388,0.002931754085015237,-785.0054098010378,-0.33569836549666826,-0.33569836549666826,-576.904117821545,0.0,0.0,0.0,0.0,0.001,1.0,1000,100000.0,0.3
25,1,0.04801987782295932,0.11750101659135434,0.9983057549294659,0.007660608087209625,-784.8328670927905,-0.39295912454888576,-0.39295912454888576,-576.7776392653741,0.0,0.0,0.0,0.0,0.001,1.0,1000,100000.0,0.3
26,1,0.053020391971262494,0.08249892841816217,1.0021671387811673,-0.00810217919659934,31.56968648951563,-0.41199688256475947,-0.41199688256475947,31.167378461476815,0.0,0.0,0.0,0.0,0.001,1.0,1000,100000.0,0.3
27,1,0.053020281084063536,0.0874996083104427,1.0013560581227383,-0.0029756028555944745,29.18798437341846,-0.5428513975456958,-0.5428513975456958,29.374766359289133,0.0,0.0,0.0,0.0,0.001,1.0,1000,100000.0,0.3
28,1,0.058020971894639686,0.08249877961993607,1.0064803598002987,-0.009221194099873103,-787.6741163122923,-0.4168503244789808,-0.4168503244789808,-579.3239605164708,0.0,0.0,0.0,0.0,0.001,1.0,1000,100000.0,0.3
29,1,0.05802063394247146,0.08749950821801351,1.0039938083716455,-0.003703504543876532,-789.46668046142,-0.6261892469007272,-0.6261892469007272,-580.6836390981084,0.0,0.0,0.0,0.0,0.001,1.0,1000,100000.0,0.3
30,1,0.05302019444350341,0.09249996118369543,1.0007148888555586,-0.00030939785830232493,22.19054973259538,-0.5541076200341488,-0.5541076200341488,21.262884704989407,0.0,0.0,0.0,0.0,0.001,1.0,1000,100000.0,0.3
31,1,0.05302013204862085,0.09749998706063409,1.0002436169891644,-0.00010314085753630876,20.24515895867929,-0.32556783421962326,-0.32556783421962326,19.8141735928403,0.0,0.0,0.0,0.0,0.001,1.0,1000,100000.0,0.3
32,1,0.058020375313867265,0.09249990437592093,1.0020806156749313,-0.0007087252767549767,-793.9180184203315,-0.6675663645545049,-0.6675663645545049,-585.6934367345057,0.0,0.0,0.0,0.0,0.001,1.0,1000,100000.0,0.3
33,1,0.05802019600749482,0.0974999681233493,1.000740763092943,-0.00023626820695474748,-795.4023539014114,-0.5276800710228602,-0.5276800710228602,-586.7988173572144,0.0,0.0,0.0,0.0,0.001,1.0,1000,100000.0,0.3
34,1,0.05302013204725539,0.10250001293556568,1.000243579880915,0.00010307930903301914,20.245193170729483,0.32558180264973746,0.32558180264973746,19.814183407712747,0.0,0.0,0.0,0.0,0.001,1.0,1000,100000.0,0.3
35,1,0.053020194439407926,0.10750003880877003,1.0007147775314695,0.00030926663668451586,22.19062621842727,0.5510862227576317,0.5510862227576317,21.26287903319547,0.0,0.0,0.0,0.0,0.001,1.0,1000,100000.0,0.3
36,1,0.058020196007736724,0.1025000318685258,1.0007407526704764,0.00023615284133768924,-795.4022984798435,0.5277098048904979,0.5277098048904979,-586.7987721941638,0.0,0.0,0.0,0.0,0.001,1.0,1000,100000.0,0.3
37,1,0.058020375314594155,0.107500095612125,1.0020805844101814,0.0007085471908138314,-793.918070475225,0.6597694014153359,0.6597694014153359,-585.6935944207181,0.0,0.0,0.0,0.0,0.001,1.0,1000,100000.0,0.3
38,1,0.05302028108532525,0.11250039168756792,1.001356061824826,0.002975583325941463,29.188090424637704,0.5428997322957725,0.5428997322957725,29.374762914643743,0.0,0.0,0.0,0.0,0.001,1.0,1000,100000.0,0.3
39,1,0.05302039198597767,0.11750107156945692,1.0021674469329813,0.008101991362849932,31.534438555893317,0.3385893423052538,0.3385893423052538,31.119896800304513,0.0,0.0,0.0,0.0,0.001,1.0,1000,100000.0,0.3
40,1,0.0580206339507932,0.11250049178033024,1.0039939379078644,0.003703531520180806,-789.4666246748253,0.62623794153322,0.62623794153322,-580.6836774664475,0.0,0.0,0.0,0.0,0.001,1.0,1000,100000.0,0.3
41,1,0.05802097191768797,0.1175012203658272,1.006480832227292,0.00922099578040586,-787.7196224869049,0.3353441423015113,0.3353441423015113,-579.3851762152761,0.0,0.0,0.0,0.0,0.001,1.0,1000,100000.0,0.3
42,1,0.06302099566930604,0.08749927285086866,1.0068833498384557,-0.005492173234039929,21.212641333538713,-0.7960247989490402,-0.7960247989490402,20.93441127869856,0.0,0.0,0.0,0.0,0.001,1.0,1000,100000.0,0.3
43,1,0.06302075936254407,0.09249956911920215,1.004970952642823,-0.0032899700375733274,27.423257130091717,-1.136673856753725,-1.136673856753725,27.31248112716326,0.0,0.0,0.0,0.0,0.001,1.0,1000,100000.0,0.3
44,1,0.0630206189241783,0.09749985637369696,1.0039303937342163,-0.0010966467759894296,29.846321027008823,-0.6340839239342877,-0.6340839239342877,29.1169416646333,0.0,0.0,0.0,0.0,0.001,1.0,1000,100000.0,0.3
45,1,0.06802129778330288,0.09249902013051452,1.0089298699979783,-0.007431018331862852,-789.1498317156338,-0.5982986231832862,-0.5982986231832862,-579.0438630062188,0.0,0.0,0.0,0.0,0.001,1.0,1000,100000.0,0.3
46,1,0.06802131891449975,0.09749967337996436,1.0090549898872,-0.0024769659692922773,-786.9584367546154,-0.24920923794109265,-0.24920923794109265,-577.4113069001378,0.0,0.0,0.0,0.0,0.001,1.0,1000,100000.0,0.3
47,1,0.06302061892748567,0.10250014362520901,1.0039304305352106,0.0010966290009284667,29.84640958950905,0.6341810694746103,0.6341810694746103,29.11702484688372,0.0,0.0,0.0,0.0,0.001,1.0,1000,100000.0,0.3
48,1,0.0630207593724673,0.10750043088045112,1.0049710630427473,0.0032899578898615118,27.42260355094434,1.1020720841895777,1.1020720841895777,27.31149623294961,0.0,0.0,0.0,0.0,0.001,1.0,1000,100000.0,0.3
49,1,0.06802131892189348,0.10250032663427112,1.0090550874458732,0.0024771513663189655,-786.9583526280488,0.2493119339402612,0.2493119339402612,-577.4112181284684,0.0,0.0,0.0,0.0,0.001,1.0,1000,100000.0,0.3
50,1,0.06802129780548258,0.10750097989243679,1.0089301626338159,0.007431320050089252,-789.1513780637858,0.5192484449078516,0.5192484449078516,-579.04601307022,0.0,0.0,0.0,0.0,0.001,1.0,1000,100000.0,0.3
51,1,0.063020995686253,0.11250072715791107,1.0068836088994746,0.005492353778391621,21.212689397128923,0.7961124325706127,0.7961124325706127,20.934369159713427,0.0,0.0,0.0,0.0,0.001,1.0,1000,100000.0,0.3
