particle_id,object_id,pos_x,pos_y,vel_x,vel_y,stress_xx,stress_xy,stress_yx,stress_yy,strain_xx,strain_xy,strain_yx,strain_yy,volume,mass,density,youngs_modulus,poisson_ratio
0,1,0.03752700009514914,0.08749999940534106,0.9998664939939313,-8.761991023745754e-05,-216.94160606677136,-0.03759360875211597,-0.03759360875211597,-161.0309929955784,0.0,0.0,0.0,0.0,0.001,1.0,1000,10000000.0,0.3
1,1,0.032526999638469306,0.09249999984782466,0.9997991513780985,-2.220376343490944e-05,2.478026728218075,0.0077804302796750545,0.0077804302796750545,2.1426708256140294,0.0,0.0,0.0,0.0,0.001,1.0,1000,10000000.0,0.3
2,1,0.03252699988585867,0.09749999994927683,0.9998357034633034,-7.401257809335131e-06,2.5037237943370063,0.023507100859931126,0.023507100859931126,2.1618069365351524,0.0,0.0,0.0,0.0,0.001,1.0,1000,10000000.0,0.3
3,1,0.037527000499983795,0.09249999984489697,0.9999262370086687,-2.2837030617469817e-05,-217.07487042296103,0.01151474997031006,0.01151474997031006,-161.29929381339284,0.0,0.0,0.0,0.0,0.001,1.0,1000,10000000.0,0.3
4,1,0.0375270006122745,0.09749999994830098,0.9999427519078758,-7.6123438578509176e-06,-217.0502640019443,0.02693872063894797,0.02693872063894797,-161.28096988486635,0.0,0.0,0.0,0.0,0.001,1.0,1000,10000000.0,0.3
5,1,0.03252699988585868,0.10250000005072317,0.9998357034686802,7.4012438474454155e-06,2.5037237751409998,-0.023507066245505796,-0.023507066245505796,2.1618069177908565,0.0,0.0,0.0,0.0,0.001,1.0,1000,10000000.0,0.3
6,1,0.032526999638469375,0.1075000001521753,0.999799151394262,2.220374150109645e-05,2.478026664471213,-0.007844141073898664,-0.007844141073898664,2.1426707611107765,0.0,0.0,0.0,0.0,0.001,1.0,1000,10000000.0,0.3
7,1,0.03752700061227452,0.10250000005169903,0.9999427519118895,7.612341999912561e-06,-217.0502640138575,-0.026938689101380368,-0.026938689101380368,-161.2809698937773,0.0,0.0,0.0,0.0,0.001,1.0,1000,10000000.0,0.3
8,1,0.03752700049998384,0.10750000015510301,0.9999262370206973,2.2837026941358373e-05,-217.07487048125054,-0.011579355881918304,-0.011579355881918304,-161.2992938703912,0.0,0.0,0.0,0.0,0.001,1.0,1000,10000000.0,0.3
9,1,0.03752700009514917,0.11250000059465895,0.9998664940059674,8.761990679773411e-05,-216.94160608932256,0.03759362083471728,0.03759362083471728,-161.03099299255143,0.0,0.0,0.0,0.0,0.001,1.0,1000,10000000.0,0.3
10,1,0.04252700051340995,0.08249999919512424,0.9999282774209731,-0.00011854484001417677,2.337809551722576,0.009535667506657384,0.009535667506657384,2.2774139559102378,0.0,0.0,0.0,0.0,0.001,1.0,1000,10000000.0,0.3
11,1,0.04252700079049374,0.08749999962726301,0.9999690807049368,-5.497360751592962e-05,2.285429532273617,0.0193131294827737,0.0193131294827737,2.2384076750626893,0.0,0.0,0.0,0.0,0.001,1.0,1000,10000000.0,0.3
12,1,0.0475270008374413,0.08249999924014374,0.9999760173554905,-0.0001119489621042626,-217.2522691832119,0.003758048047283173,0.003758048047283173,-161.21182854555767,0.0,0.0,0.0,0.0,0.001,1.0,1000,10000000.0,0.3
13,1,0.04752700092985267,0.08749999971125709,0.9999896278739433,-4.2617184748623655e-05,-217.30466752528991,0.01314619842166392,0.01314619842166392,-161.25084847505684,0.0,0.0,0.0,0.0,0.001,1.0,1000,10000000.0,0.3
14,1,0.04252700094596665,0.09249999988250038,0.9999919472037817,-1.7390992467536113e-05,1.8825170001728777,0.038315343322318646,0.038315343322318646,1.7656109196899286,0.0,0.0,0.0,0.0,0.001,1.0,1000,10000000.0,0.3
15,1,0.04252700097982875,0.09749999996083565,0.999996876917487,-5.796996493619712e-06,1.7066794818922721,0.029409437622127565,0.029409437622127565,1.6346680847983452,0.0,0.0,0.0,0.0,0.001,1.0,1000,10000000.0,0.3
16,1,0.047527000981745594,0.09249999996011236,0.9999972636012222,-5.9634715736524854e-06,-217.81809515190085,0.016105084047466956,0.016105084047466956,-161.87230508411363,0.0,0.0,0.0,0.0,0.001,1.0,1000,10000000.0,0.3
17,1,0.04752700099311954,0.0974999999867073,0.9999989245374808,-1.9878232460208884e-06,-217.9930655353632,0.007041296127669086,0.007041296127669086,-162.0026021791673,0.0,0.0,0.0,0.0,0.001,1.0,1000,10000000.0,0.3
18,1,0.04252700097982875,0.10250000003916436,0.9999968769202695,5.796999946046883e-06,1.7066794782198547,-0.029409429160565253,-0.029409429160565253,1.6346680836658243,0.0,0.0,0.0,0.0,0.001,1.0,1000,10000000.0,0.3
19,1,0.04252700094596667,0.10750000011749963,0.9999919472121337,1.7390996917978844e-05,1.8825169661493433,-0.0383641584739995,-0.0383641584739995,1.7656108853982324,0.0,0.0,0.0,0.0,0.001,1.0,1000,10000000.0,0.3
20,1,0.04752700099311954,0.10250000001329272,0.9999989245391783,1.9878253393178813e-06,-217.99306554088088,-0.007041289247632345,-0.007041289247632345,-162.00260218274136,0.0,0.0,0.0,0.0,0.001,1.0,1000,10000000.0,0.3
21,1,0.04752700098174561,0.10750000003988765,0.9999972636063116,5.9634742045764014e-06,-217.8180951762549,-0.01612155469819422,-0.01612155469819422,-161.87230510530478,0.0,0.0,0.0,0.0,0.001,1.0,1000,10000000.0,0.3
22,1,0.04252700079049377,0.112500000372737,0.9999690807132967,5.4973611224257104e-05,2.285429523695258,-0.01931313801562975,-0.01931313801562975,2.2384076772052017,0.0,0.0,0.0,0.0,0.001,1.0,1000,10000000.0,0.3
23,1,0.04252700051340996,0.11750000080487577,0.9999282774237709,0.0001185448412402572,2.337809548273214,-0.009535676084921561,-0.009535676084921561,2.2774139618722242,0.0,0.0,0.0,0.0,0.001,1.0,1000,10000000.0,0.3
24,1,0.04752700092985269,0.11250000028874292,0.9999896278790513,4.261718691641521e-05,-217.30466753420492,-0.013146206261175434,-0.013146206261175434,-161.25084847323112,0.0,0.0,0.0,0.0,0.001,1.0,1000,10000000.0,0.3
25,1,0.047527000837441304,0.11750000075985627,0.9999760173572027,0.00011194896280816304,-217.2522691869916,-0.003758055937662805,-0.003758055937662805,-161.21182853990533,0.0,0.0,0.0,0.0,0.001,1.0,1000,10000000.0,0.3
26,1,0.05252700123140354,0.08249999920482005,1.0000341074182646,-0.00011720973156635241,2.3388981338061527,-0.03487865819557843,-0.03487865819557843,2.3120084072111,0.0,0.0,0.0,0.0,0.001,1.0,1000,10000000.0,0.3
27,1,0.05252700113919341,0.08749999971107718,1.0000205340464627,-4.2650831463338365e-05,2.1740970034927183,-0.04600417340638423,-0.04600417340638423,2.1892842800885006,0.0,0.0,0.0,0.0,0.001,1.0,1000,10000000.0,0.3
28,1,0.057527001694389464,0.08249999909019423,1.0001023790002925,-0.0001341349467704531,-217.3816771585536,-0.054746981378307934,-0.054746981378307934,-161.3473639281262,0.0,0.0,0.0,0.0,0.001,1.0,1000,10000000.0,0.3
29,1,0.05752700141761323,0.08749999962780572,1.0000616316377868,-5.487543902273968e-05,-217.5440933032629,-0.06619159640477593,-0.06619159640477593,-161.4683119852561,0.0,0.0,0.0,0.0,0.001,1.0,1000,10000000.0,0.3
30,1,0.052527001069907056,0.0924999999731564,1.000010330644069,-4.0285364705376465e-06,1.665352252994597,-0.04413447926645131,-0.04413447926645131,1.5902735612492478,0.0,0.0,0.0,0.0,0.001,1.0,1000,10000000.0,0.3
31,1,0.05252700102354431,0.09749999999105576,1.0000034972108742,-1.342846996461159e-06,1.5487622772865726,-0.025460719290583075,-0.025460719290583075,1.5034512380260079,0.0,0.0,0.0,0.0,0.001,1.0,1000,10000000.0,0.3
32,1,0.05752700120977973,0.09249999992245947,1.0000310233965997,-1.1434265412538977e-05,-217.87894684459337,-0.05848178195645808,-0.05848178195645808,-161.83500523817327,0.0,0.0,0.0,0.0,0.001,1.0,1000,10000000.0,0.3
33,1,0.05752700107088849,0.09749999997415568,1.000010554276445,-3.811427131204237e-06,-217.99393101656048,-0.04016548445717974,-0.04016548445717974,-161.92063175100552,0.0,0.0,0.0,0.0,0.001,1.0,1000,10000000.0,0.3
34,1,0.05252700102354433,0.10250000000894423,1.000003497213355,1.3428416209406037e-06,1.548762314585987,0.025460734356931504,0.025460734356931504,1.5034512634985755,0.0,0.0,0.0,0.0,0.001,1.0,1000,10000000.0,0.3
35,1,0.0525270010699071,0.10750000002684353,1.0000103306514143,4.0285294399392835e-06,1.6653523684951934,0.0441234310409302,0.0441234310409302,1.5902736425043886,0.0,0.0,0.0,0.0,0.001,1.0,1000,10000000.0,0.3
36,1,0.0575270010708885,0.10250000002584429,1.000010554281447,3.8114082895670453e-06,-217.9939309874197,0.040165510049068626,0.040165510049068626,-161.92063173617845,0.0,0.0,0.0,0.0,0.001,1.0,1000,10000000.0,0.3
37,1,0.05752700120977978,0.10750000007754046,1.0000310234116483,1.1434241022673292e-05,-217.87894674645017,0.05844951356896046,0.05844951356896046,-161.83500517931128,0.0,0.0,0.0,0.0,0.001,1.0,1000,10000000.0,0.3
38,1,0.05252700113919346,0.1125000002889228,1.0000205340538162,4.265082556028843e-05,2.1740971523794856,0.04600416389048457,0.04600416389048457,2.189284394292051,0.0,0.0,0.0,0.0,0.001,1.0,1000,10000000.0,0.3
39,1,0.05252700123140357,0.11750000079517996,1.0000341074207408,0.00011720972957347788,2.338898240127574,0.03487864575498193,0.03487864575498193,2.312008489717055,0.0,0.0,0.0,0.0,0.001,1.0,1000,10000000.0,0.3
40,1,0.05752700141761335,0.11250000037219421,1.0000616316528075,5.487541863867303e-05,-217.54409317318311,0.06619158150475461,0.06619158150475461,-161.46831189516965,0.0,0.0,0.0,0.0,0.001,1.0,1000,10000000.0,0.3
41,1,0.05752700169438948,0.11750000090980574,1.0001023790052828,0.0001341349399462138,-217.38167707038158,0.05474696358522933,0.05474696358522933,-161.34736386924675,0.0,0.0,0.0,0.0,0.001,1.0,1000,10000000.0,0.3
42,1,0.06252700162839636,0.08749999945672562,1.0000927447640298,-8.00523278688015e-05,1.577200600831815,-0.055579327848874496,-0.055579327848874496,1.5657723077756094,0.0,0.0,0.0,0.0,0.001,1.0,1000,10000000.0,0.3
43,1,0.06252700150073737,0.09249999968835926,1.000073905181206,-4.599172263291652e-05,2.0924951454750307,-0.08042715375959791,-0.08042715375959791,2.0698703904207743,0.0,0.0,0.0,0.0,0.001,1.0,1000,10000000.0,0.3
44,1,0.06252700138842092,0.09749999989612124,1.0000573831435142,-1.533057539315831e-05,2.2875391720050624,-0.04402783579975044,-0.04402783579975044,2.21511594442234,0.0,0.0,0.0,0.0,0.001,1.0,1000,10000000.0,0.3
45,1,0.06752700194083375,0.09249999927322108,1.000138618246856,-0.0001072633757651731,-217.3568126889366,-0.054641356378355294,-0.054641356378355294,-161.22282121427656,0.0,0.0,0.0,0.0,0.001,1.0,1000,10000000.0,0.3
46,1,0.06752700197266573,0.09749999975774169,1.0001433444299057,-3.575444837149689e-05,-217.16290700311012,-0.018833276839131493,-0.018833276839131493,-161.07842332705607,0.0,0.0,0.0,0.0,0.001,1.0,1000,10000000.0,0.3
47,1,0.06252700138842093,0.10250000010387876,1.0000573831543587,1.533057308887105e-05,2.2875392310425036,0.04402793542220936,0.04402793542220936,2.215115985478,0.0,0.0,0.0,0.0,0.001,1.0,1000,10000000.0,0.3
48,1,0.06252700150073752,0.10750000031164074,1.0000739052138528,4.59917239928052e-05,2.0924952853015317,0.08029753576622332,0.08029753576622332,2.06987046351837,0.0,0.0,0.0,0.0,0.001,1.0,1000,10000000.0,0.3
49,1,0.06752700197266581,0.10250000024225851,1.000143344449904,3.5754492057787436e-05,-217.16290692443286,0.018833392221017264,0.018833392221017264,-161.07842325903098,0.0,0.0,0.0,0.0,0.001,1.0,1000,10000000.0,0.3
50,1,0.0675270019408339,0.10750000072677911,1.0001386183068415,0.00010726344519306131,-217.35681257984936,0.05433894909682831,0.05433894909682831,-161.22282118073724,0.0,0.0,0.0,0.0,0.001,1.0,1000,10000000.0,0.3
51,1,0.06252700162839651,0.11250000054327439,1.0000927447966357,8.005233024563502e-05,1.5772007588497594,0.05557936632033174,0.05557936632033174,1.5657723671325676,0.0,0.0,0.0,0.0,0.001,1.0,1000,10000000.0,0.3
