particle_id,object_id,pos_x,pos_y,vel_x,vel_y,stress_xx,stress_xy,stress_yx,stress_yy,strain_xx,strain_xy,strain_yx,strain_yy,volume,mass,density,youngs_modulus,poisson_ratio
0,1,0.12666716666666664,0.07333333333333333,0.4999999999999998,0.0,0.0,0.0,0.0,0.0,0.0,0.0,0.0,0.0,1.0,1.0,1000.0,100000000.0,0.3
1,1,0.12666716666666664,0.07666666666666667,0.49999999999999983,0.0,0.0,0.0,0.0,0.0,0.0,0.0,0.0,0.0,1.0,1.0,1000.0,100000000.0,0.3
2,1,0.12333383333333334,0.08333333333333334,0.4999999999999998,0.0,0.0,0.0,0.0,0.0,0.0,0.0,0.0,0.0,1.0,1.0,1000.0,100000000.0,0.3
3,1,0.12333383333333334,0.08666666666666666,0.4999999999999998,0.0,0.0,0.0,0.0,0.0,0.0,0.0,0.0,0.0,1.0,1.0,1000.0,100000000.0,0.3
4,1,0.12666716666666664,0.08333333333333334,0.4999999999999998,0.0,0.0,0.0,0.0,0.0,0.0,0.0,0.0,0.0,1.0,1.0,1000.0,100000000.0,0.3
5,1,0.12666716666666664,0.08666666666666666,0.4999999999999998,0.0,0.0,0.0,0.0,0.0,0.0,0.0,0.0,0.0,1.0,1.0,1000.0,100000000.0,0.3
6,1,0.12333383333333334,0.09333333333333334,0.4999999999999991,0.0,0.0,0.0,0.0,0.0,0.0,0.0,0.0,0.0,1.0,1.0,1000.0,100000000.0,0.3
7,1,0.12333383333333334,0.09666666666666666,0.4999999999999991,0.0,0.0,0.0,0.0,0.0,0.0,0.0,0.0,0.0,1.0,1.0,1000.0,100000000.0,0.3
8,1,0.12666716666666664,0.09333333333333334,0.4999999999999991,0.0,0.0,0.0,0.0,0.0,0.0,0.0,0.0,0.0,1.0,1.0,1000.0,100000000.0,0.3
9,1,0.12666716666666664,0.09666666666666666,0.4999999999999991,0.0,0.0,0.0,0.0,0.0,0.0,0.0,0.0,0.0,1.0,1.0,1000.0,100000000.0,0.3
10,1,0.12333383333333334,0.10333333333333335,0.4999999999999998,0.0,0.0,0.0,0.0,0.0,0.0,0.0,0.0,0.0,1.0,1.0,1000.0,100000000.0,0.3
11,1,0.12333383333333334,0.10666666666666666,0.4999999999999998,0.0,0.0,0.0,0.0,0.0,0.0,0.0,0.0,0.0,1.0,1.0,1000.0,100000000.0,0.3
12,1,0.12666716666666664,0.10333333333333335,0.4999999999999998,0.0,0.0,0.0,0.0,0.0,0.0,0.0,0.0,0.0,1.0,1.0,1000.0,100000000.0,0.3
13,1,0.12666716666666664,0.10666666666666666,0.4999999999999998,0.0,0.0,0.0,0.0,0.0,0.0,0.0,0.0,0.0,1.0,1.0,1000.0,100000000.0,0.3
14,1,0.12333383333333334,0.11333333333333334,0.4999999999999998,0.0,0.0,0.0,0.0,0.0,0.0,0.0,0.0,0.0,1.0,1.0,1000.0,100000000.0,0.3
15,1,0.12333383333333334,0.11666666666666667,0.4999999999999998,0.0,0.0,0.0,0.0,0.0,0.0,0.0,0.0,0.0,1.0,1.0,1000.0,100000000.0,0.3
16,1,0.12666716666666664,0.11333333333333334,0.4999999999999998,0.0,0.0,0.0,0.0,0.0,0.0,0.0,0.0,0.0,1.0,1.0,1000.0,100000000.0,0.3
17,1,0.12666716666666664,0.11666666666666667,0.49999999999999983,0.0,0.0,0.0,0.0,0.0,0.0,0.0,0.0,0.0,1.0,1.0,1000.0,100000000.0,0.3
18,1,0.12666716666666664,0.12333333333333334,0.4999999999999991,0.0,0.0,0.0,0.0,0.0,0.0,0.0,0.0,0.0,1.0,1.0,1000.0,100000000.0,0.3
19,1,0.12666716666666664,0.12666666666666665,0.4999999999999991,0.0,0.0,0.0,0.0,0.0,0.0,0.0,0.0,0.0,1.0,1.0,1000.0,100000000.0,0.3
20,1,0.13333383333333332,0.05666666666666667,0.49999999999999983,0.0,0.0,0.0,0.0,0.0,0.0,0.0,0.0,0.0,1.0,1.0,1000.0,100000000.0,0.3
21,1,0.13666716666666665,0.05333333333333333,0.4999999999999998,0.0,0.0,0.0,0.0,0.0,0.0,0.0,0.0,0.0,1.0,1.0,1000.0,100000000.0,0.3
22,1,0.13666716666666665,0.05666666666666667,0.49999999999999983,0.0,0.0,0.0,0.0,0.0,0.0,0.0,0.0,0.0,1.0,1.0,1000.0,100000000.0,0.3
23,1,0.13333383333333332,0.06333333333333332,0.4999999999999991,0.0,-4.782499183000674e-13,0.0,0.0,-2.0496425070002888e-13,0.0,0.0,0.0,0.0,1.0,1.0,1000.0,100000000.0,0.3
24,1,0.13333383333333332,0.06666666666666667,0.4999999999999991,0.0,0.0,0.0,0.0,0.0,0.0,0.0,0.0,0.0,1.0,1.0,1000.0,100000000.0,0.3
25,1,0.13666716666666665,0.06333333333333332,0.4999999999999991,0.0,-4.782499183000674e-13,0.0,0.0,-2.0496425070002888e-13,0.0,0.0,0.0,0.0,1.0,1.0,1000.0,100000000.0,0.3
26,1,0.13666716666666665,0.06666666666666667,0.4999999999999991,0.0,0.0,0.0,0.0,0.0,0.0,0.0,0.0,0.0,1.0,1.0,1000.0,100000000.0,0.3
27,1,0.13333383333333332,0.07333333333333333,0.49999999999999983,0.0,0.0,0.0,0.0,0.0,0.0,0.0,0.0,0.0,1.0,1.0,1000.0,100000000.0,0.3
28,1,0.13333383333333332,0.07666666666666667,0.49999999999999983,0.0,0.0,0.0,0.0,0.0,0.0,0.0,0.0,0.0,1.0,1.0,1000.0,100000000.0,0.3
29,1,0.13666716666666665,0.07333333333333333,0.4999999999999998,0.0,0.0,0.0,0.0,0.0,0.0,0.0,0.0,0.0,1.0,1.0,1000.0,100000000.0,0.3
30,1,0.13666716666666665,0.07666666666666667,0.49999999999999983,0.0,0.0,0.0,0.0,0.0,0.0,0.0,0.0,0.0,1.0,1.0,1000.0,100000000.0,0.3
31,1,0.13333383333333332,0.08333333333333334,0.49999999999999983,0.0,0.0,0.0,0.0,0.0,0.0,0.0,0.0,0.0,1.0,1.0,1000.0,100000000.0,0.3
32,1,0.13333383333333332,0.08666666666666666,0.4999999999999998,0.0,0.0,0.0,0.0,0.0,0.0,0.0,0.0,0.0,1.0,1.0,1000.0,100000000.0,0.3
33,1,0.13666716666666665,0.08333333333333334,0.4999999999999998,0.0,0.0,0.0,0.0,0.0,0.0,0.0,0.0,0.0,1.0,1.0,1000.0,100000000.0,0.3
34,1,0.13666716666666665,0.08666666666666666,0.4999999999999998,0.0,0.0,0.0,0.0,0.0,0.0,0.0,0.0,0.0,1.0,1.0,1000.0,100000000.0,0.3
35,1,0.13333383333333332,0.09333333333333334,0.49999999999999917,0.0,0.0,0.0,0.0,0.0,0.0,0.0,0.0,0.0,1.0,1.0,1000.0,100000000.0,0.3
36,1,0.13333383333333332,0.09666666666666666,0.4999999999999991,0.0,0.0,0.0,0.0,0.0,0.0,0.0,0.0,0.0,1.0,1.0,1000.0,100000000.0,0.3
37,1,0.13666716666666665,0.09333333333333334,0.4999999999999991,0.0,0.0,0.0,0.0,0.0,0.0,0.0,0.0,0.0,1.0,1.0,1000.0,100000000.0,0.3
38,1,0.13666716666666665,0.09666666666666666,0.4999999999999991,0.0,0.0,0.0,0.0,0.0,0.0,0.0,0.0,0.0,1.0,1.0,1000.0,100000000.0,0.3
39,1,0.13333383333333332,0.10333333333333335,0.49999999999999983,0.0,0.0,0.0,0.0,0.0,0.0,0.0,0.0,0.0,1.0,1.0,1000.0,100000000.0,0.3
40,1,0.13333383333333332,0.10666666666666666,0.4999999999999998,0.0,0.0,0.0,0.0,0.0,0.0,0.0,0.0,0.0,1.0,1.0,1000.0,100000000.0,0.3
41,1,0.13666716666666665,0.10333333333333335,0.4999999999999998,0.0,0.0,0.0,0.0,0.0,0.0,0.0,0.0,0.0,1.0,1.0,1000.0,100000000.0,0.3
42,1,0.13666716666666665,0.10666666666666666,0.4999999999999998,0.0,0.0,0.0,0.0,0.0,0.0,0.0,0.0,0.0,1.0,1.0,1000.0,100000000.0,0.3
43,1,0.13333383333333332,0.11333333333333334,0.49999999999999983,0.0,0.0,0.0,0.0,0.0,0.0,0.0,0.0,0.0,1.0,1.0,1000.0,100000000.0,0.3
44,1,0.13333383333333332,0.11666666666666667,0.49999999999999983,0.0,0.0,0.0,0.0,0.0,0.0,0.0,0.0,0.0,1.0,1.0,1000.0,100000000.0,0.3
45,1,0.13666716666666665,0.11333333333333334,0.4999999999999998,0.0,0.0,0.0,0.0,0.0,0.0,0.0,0.0,0.0,1.0,1.0,1000.0,100000000.0,0.3
46,1,0.13666716666666665,0.11666666666666667,0.49999999999999983,0.0,0.0,0.0,0.0,0.0,0.0,0.0,0.0,0.0,1.0,1.0,1000.0,100000000.0,0.3
47,1,0.13333383333333332,0.12333333333333334,0.49999999999999917,0.0,0.0,0.0,0.0,0.0,0.0,0.0,0.0,0.0,1.0,1.0,1000.0,100000000.0,0.3
48,1,0.13333383333333332,0.12666666666666665,0.4999999999999991,0.0,0.0,0.0,0.0,0.0,0.0,0.0,0.0,0.0,1.0,1.0,1000.0,100000000.0,0.3
49,1,0.13666716666666665,0.12333333333333334,0.4999999999999991,0.0,0.0,0.0,0.0,0.0,0.0,0.0,0.0,0.0,1.0,1.0,1000.0,100000000.0,0.3
50,1,0.13666716666666665,0.12666666666666665,0.4999999999999991,0.0,0.0,0.0,0.0,0.0,0.0,0.0,0.0,0.0,1.0,1.0,1000.0,100000000.0,0.3
51,1,0.13333383333333332,0.13333333333333333,0.4999999999999991,0.0,-4.782499183000674e-13,0.0,0.0,-2.0496425070002888e-13,0.0,0.0,0.0,0.0,1.0,1.0,1000.0,100000000.0,0.3
52,1,0.13333383333333332,0.13666666666666666,0.4999999999999991,0.0,0.0,0.0,0.0,0.0,0.0,0.0,0.0,0.0,1.0,1.0,1000.0,100000000.0,0.3
53,1,0.13666716666666665,0.13333333333333333,0.4999999999999991,0.0,-4.782499183000674e-13,0.0,0.0,-2.0496425070002888e-13,0.0,0.0,0.0,0.0,1.0,1.0,1000.0,100000000.0,0.3
54,1,0.13666716666666665,0.13666666666666666,0.4999999999999991,0.0,0.0,0.0,0.0,0.0,0.0,0.0,0.0,0.0,1.0,1.0,1000.0,100000000.0,0.3
55,1,0.13333383333333332,0.14333333333333334,0.5000000000000004,0.0,0.0,0.0,0.0,0.0,0.0,0.0,0.0,0.0,1.0,1.0,1000.0,100000000.0,0.3
56,1,0.13666716666666665,0.14333333333333334,0.5000000000000004,0.0,0.0,0.0,0.0,0.0,0.0,0.0,0.0,0.0,1.0,1.0,1000.0,100000000.0,0.3
57,1,0.13666716666666665,0.14666666666666667,0.5000000000000004,0.0,0.0,0.0,0.0,0.0,0.0,0.0,0.0,0.0,1.0,1.0,1000.0,100000000.0,0.3
58,1,0.14333383333333333,0.04666666666666667,0.5000000000000009,0.0,0.0,0.0,0.0,0.0,0.0,0.0,0.0,0.0,1.0,1.0,1000.0,100000000.0,0.3
59,1,0.14666716666666665,0.04333333333333333,0.5000000000000009,0.0,4.782499183000674e-13,0.0,0.0,2.0496425070002888e-13,0.0,0.0,0.0,0.0,1.0,1.0,1000.0,100000000.0,0.3
60,1,0.14666716666666665,0.04666666666666667,0.5000000000000009,0.0,0.0,0.0,0.0,0.0,0.0,0.0,0.0,0.0,1.0,1.0,1000.0,100000000.0,0.3
61,1,0.14333383333333333,0.05333333333333333,0.5000000000000012,0.0,0.0,0.0,0.0,0.0,0.0,0.0,0.0,0.0,1.0,1.0,1000.0,100000000.0,0.3
62,1,0.14333383333333333,0.05666666666666667,0.5000000000000012,0.0,0.0,0.0,0.0,0.0,0.0,0.0,0.0,0.0,1.0,1.0,1000.0,100000000.0,0.3
63,1,0.14666716666666665,0.05333333333333333,0.5000000000000012,0.0,0.0,0.0,0.0,0.0,0.0,0.0,0.0,0.0,1.0,1.0,1000.0,100000000.0,0.3
64,1,0.14666716666666665,0.05666666666666667,0.5000000000000012,0.0,0.0,0.0,0.0,0.0,0.0,0.0,0.0,0.0,1.0,1.0,1000.0,100000000.0,0.3
65,1,0.14333383333333333,0.06333333333333332,0.5000000000000004,0.0,-4.782499183000674e-13,0.0,0.0,-2.0496425070002888e-13,0.0,0.0,0.0,0.0,1.0,1.0,1000.0,100000000.0,0.3
66,1,0.14333383333333333,0.06666666666666667,0.5000000000000006,0.0,0.0,0.0,0.0,0.0,0.0,0.0,0.0,0.0,1.0,1.0,1000.0,100000000.0,0.3
67,1,0.14666716666666665,0.06333333333333332,0.5000000000000004,0.0,-4.782499183000674e-13,0.0,0.0,-2.0496425070002888e-13,0.0,0.0,0.0,0.0,1.0,1.0,1000.0,100000000.0,0.3
68,1,0.14666716666666665,0.06666666666666667,0.5000000000000004,0.0,0.0,0.0,0.0,0.0,0.0,0.0,0.0,0.0,1.0,1.0,1000.0,100000000.0,0.3
69,1,0.14333383333333333,0.07333333333333333,0.5000000000000012,0.0,0.0,0.0,0.0,0.0,0.0,0.0,0.0,0.0,1.0,1.0,1000.0,100000000.0,0.3
70,1,0.14333383333333333,0.07666666666666667,0.5000000000000012,0.0,0.0,0.0,0.0,0.0,0.0,0.0,0.0,0.0,1.0,1.0,1000.0,100000000.0,0.3
71,1,0.14666716666666665,0.07333333333333333,0.5000000000000012,0.0,0.0,0.0,0.0,0.0,0.0,0.0,0.0,0.0,1.0,1.0,1000.0,100000000.0,0.3
72,1,0.14666716666666665,0.07666666666666667,0.5000000000000012,0.0,0.0,0.0,0.0,0.0,0.0,0.0,0.0,0.0,1.0,1.0,1000.0,100000000.0,0.3
73,1,0.14333383333333333,0.08333333333333334,0.5000000000000012,0.0,0.0,0.0,0.0,0.0,0.0,0.0,0.0,0.0,1.0,1.0,1000.0,100000000.0,0.3
74,1,0.14333383333333333,0.08666666666666666,0.5000000000000012,0.0,0.0,0.0,0.0,0.0,0.0,0.0,0.0,0.0,1.0,1.0,1000.0,100000000.0,0.3
75,1,0.14666716666666665,0.08333333333333334,0.5000000000000011,0.0,0.0,0.0,0.0,0.0,0.0,0.0,0.0,0.0,1.0,1.0,1000.0,100000000.0,0.3
76,1,0.14666716666666665,0.08666666666666666,0.5000000000000011,0.0,0.0,0.0,0.0,0.0,0.0,0.0,0.0,0.0,1.0,1.0,1000.0,100000000.0,0.3
77,1,0.14333383333333333,0.09333333333333334,0.5000000000000006,0.0,0.0,0.0,0.0,0.0,0.0,0.0,0.0,0.0,1.0,1.0,1000.0,100000000.0,0.3
78,1,0.14333383333333333,0.09666666666666666,0.5000000000000006,0.0,0.0,0.0,0.0,0.0,0.0,0.0,0.0,0.0,1.0,1.0,1000.0,100000000.0,0.3
79,1,0.14666716666666665,0.09333333333333334,0.5000000000000004,0.0,0.0,0.0,0.0,0.0,0.0,0.0,0.0,0.0,1.0,1.0,1000.0,100000000.0,0.3
80,1,0.14666716666666665,0.09666666666666666,0.5000000000000004,0.0,0.0,0.0,0.0,0.0,0.0,0.0,0.0,0.0,1.0,1.0,1000.0,100000000.0,0.3
81,1,0.14333383333333333,0.10333333333333335,0.5000000000000012,0.0,0.0,0.0,0.0,0.0,0.0,0.0,0.0,0.0,1.0,1.0,1000.0,100000000.0,0.3
82,1,0.14333383333333333,0.10666666666666666,0.5000000000000012,0.0,0.0,0.0,0.0,0.0,0.0,0.0,0.0,0.0,1.0,1.0,1000.0,100000000.0,0.3
83,1,0.14666716666666665,0.10333333333333335,0.5000000000000011,0.0,0.0,0.0,0.0,0.0,0.0,0.0,0.0,0.0,1.0,1.0,1000.0,100000000.0,0.3
84,1,0.14666716666666665,0.10666666666666666,0.5000000000000011,0.0,0.0,0.0,0.0,0.0,0.0,0.0,0.0,0.0,1.0,1.0,1000.0,100000000.0,0.3
85,1,0.14333383333333333,0.11333333333333334,0.5000000000000012,0.0,0.0,0.0,0.0,0.0,0.0,0.0,0.0,0.0,1.0,1.0,1000.0,100000000.0,0.3
86,1,0.14333383333333333,0.11666666666666667,0.5000000000000012,0.0,0.0,0.0,0.0,0.0,0.0,0.0,0.0,0.0,1.0,1.0,1000.0,100000000.0,0.3
87,1,0.14666716666666665,0.11333333333333334,0.5000000000000011,0.0,0.0,0.0,0.0,0.0,0.0,0.0,0.0,0.0,1.0,1.0,1000.0,100000000.0,0.3
88,1,0.14666716666666665,0.11666666666666667,0.5000000000000012,0.0,0.0,0.0,0.0,0.0,0.0,0.0,0.0,0.0,1.0,1.0,1000.0,100000000.0,0.3
89,1,0.14333383333333333,0.12333333333333334,0.5000000000000006,0.0,0.0,0.0,0.0,0.0,0.0,0.0,0.0,0.0,1.0,1.0,1000.0,100000000.0,0.3
90,1,0.14333383333333333,0.12666666666666665,0.5000000000000006,0.0,0.0,0.0,0.0,0.0,0.0,0.0,0.0,0.0,1.0,1.0,1000.0,100000000.0,0.3
91,1,0.14666716666666665,0.12333333333333334,0.5000000000000004,0.0,0.0,0.0,0.0,0.0,0.0,0.0,0.0,0.0,1.0,1.0,1000.0,100000000.0,0.3
92,1,0.14666716666666665,0.12666666666666665,0.5000000000000004,0.0,0.0,0.0,0.0,0.0,0.0,0.0,0.0,0.0,1.0,1.0,1000.0,100000000.0,0.3
93,1,0.14333383333333333,0.13333333333333333,0.5000000000000004,0.0,-4.782499183000674e-13,0.0,0.0,-2.0496425070002888e-13,0.0,0.0,0.0,0.0,1.0,1.0,1000.0,100000000.0,0.3
94,1,0.14333383333333333,0.13666666666666666,0.5000000000000006,0.0,0.0,0.0,0.0,0.0,0.0,0.0,0.0,0.0,1.0,1.0,1000.0,100000000.0,0.3
95,1,0.14666716666666665,0.13333333333333333,0.5000000000000004,0.0,-4.782499183000674e-13,0.0,0.0,-2.0496425070002888e-13,0.0,0.0,0.0,0.0,1.0,1.0,1000.0,100000000.0,0.3
96,1,0.14666716666666665,0.13666666666666666,0.5000000000000004,0.0,0.0,0.0,0.0,0.0,0.0,0.0,0.0,0.0,1.0,1.0,1000.0,100000000.0,0.3
97,1,0.14333383333333333,0.14333333333333334,0.5000000000000019,0.0,0.0,0.0,0.0,0.0,0.0,0.0,0.0,0.0,1.0,1.0,1000.0,100000000.0,0.3
98,1,0.14333383333333333,0.14666666666666667,0.5000000000000019,0.0,0.0,0.0,0.0,0.0,0.0,0.0,0.0,0.0,1.0,1.0,1000.0,100000000.0,0.3
99,1,0.14666716666666665,0.14333333333333334,0.5000000000000019,0.0,0.0,0.0,0.0,0.0,0.0,0.0,0.0,0.0,1.0,1.0,1000.0,100000000.0,0.3
100,1,0.14666716666666665,0.14666666666666667,0.5000000000000019,0.0,0.0,0.0,0.0,0.0,0.0,0.0,0.0,0.0,1.0,1.0,1000.0,100000000.0,0.3
101,1,0.14333383333333333,0.15333333333333335,0.5000000000000006,0.0,0.0,0.0,0.0,0.0,0.0,0.0,0.0,0.0,1.0,1.0,1000.0,100000000.0,0.3
102,1,0.14666716666666665,0.15333333333333335,0.5000000000000004,0.0,0.0,0.0,0.0,0.0,0.0,0.0,0.0,0.0,1.0,1.0,1000.0,100000000.0,0.3
103,1,0.14666716666666665,0.15666666666666668,0.5000000000000004,0.0,-9.564998366001349e-13,0.0,0.0,-4.0992850140005776e-13,0.0,0.0,0.0,0.0,1.0,1.0,1000.0,100000000.0,0.3
104,1,0.15333383333333334,0.03666666666666667,0.49999999999999944,0.0,0.0,0.0,0.0,0.0,0.0,0.0,0.0,0.0,1.0,1.0,1000.0,100000000.0,0.3
105,1,0.15666716666666666,0.03333333333333333,0.49999999999999956,0.0,0.0,0.0,0.0,0.0,0.0,0.0,0.0,0.0,1.0,1.0,1000.0,100000000.0,0.3
106,1,0.15666716666666666,0.03666666666666667,0.49999999999999956,0.0,0.0,0.0,0.0,0.0,0.0,0.0,0.0,0.0,1.0,1.0,1000.0,100000000.0,0.3
107,1,0.15333383333333334,0.04333333333333333,0.4999999999999994,0.0,4.782499183000674e-13,0.0,0.0,2.0496425070002888e-13,0.0,0.0,0.0,0.0,1.0,1.0,1000.0,100000000.0,0.3
108,1,0.15333383333333334,0.04666666666666667,0.49999999999999944,0.0,0.0,0.0,0.0,0.0,0.0,0.0,0.0,0.0,1.0,1.0,1000.0,100000000.0,0.3
109,1,0.15666716666666666,0.04333333333333333,0.49999999999999944,0.0,4.782499183000674e-13,0.0,0.0,2.0496425070002888e-13,0.0,0.0,0.0,0.0,1.0,1.0,1000.0,100000000.0,0.3
110,1,0.15666716666666666,0.04666666666666667,0.49999999999999956,0.0,0.0,0.0,0.0,0.0,0.0,0.0,0.0,0.0,1.0,1.0,1000.0,100000000.0,0.3
111,1,0.15333383333333334,0.05333333333333333,0.49999999999999983,0.0,0.0,0.0,0.0,0.0,0.0,0.0,0.0,0.0,1.0,1.0,1000.0,100000000.0,0.3
112,1,0.15333383333333334,0.05666666666666667,0.4999999999999998,0.0,0.0,0.0,0.0,0.0,0.0,0.0,0.0,0.0,1.0,1.0,1000.0,100000000.0,0.3
113,1,0.15666716666666666,0.05333333333333333,0.4999999999999999,0.0,0.0,0.0,0.0,0.0,0.0,0.0,0.0,0.0,1.0,1.0,1000.0,100000000.0,0.3
114,1,0.15666716666666666,0.05666666666666667,0.4999999999999999,0.0,0.0,0.0,0.0,0.0,0.0,0.0,0.0,0.0,1.0,1.0,1000.0,100000000.0,0.3
115,1,0.15333383333333334,0.06333333333333332,0.49999999999999906,0.0,-4.782499183000674e-13,0.0,0.0,-2.0496425070002888e-13,0.0,0.0,0.0,0.0,1.0,1.0,1000.0,100000000.0,0.3
116,1,0.15333383333333334,0.06666666666666667,0.4999999999999991,0.0,0.0,0.0,0.0,0.0,0.0,0.0,0.0,0.0,1.0,1.0,1000.0,100000000.0,0.3
117,1,0.15666716666666666,0.06333333333333332,0.4999999999999991,0.0,-4.782499183000674e-13,0.0,0.0,-2.0496425070002888e-13,0.0,0.0,0.0,0.0,1.0,1.0,1000.0,100000000.0,0.3
118,1,0.15666716666666666,0.06666666666666667,0.49999999999999906,0.0,0.0,0.0,0.0,0.0,0.0,0.0,0.0,0.0,1.0,1.0,1000.0,100000000.0,0.3
119,1,0.15333383333333334,0.07333333333333333,0.49999999999999983,0.0,0.0,0.0,0.0,0.0,0.0,0.0,0.0,0.0,1.0,1.0,1000.0,100000000.0,0.3
120,1,0.15333383333333334,0.07666666666666667,0.4999999999999998,0.0,0.0,0.0,0.0,0.0,0.0,0.0,0.0,0.0,1.0,1.0,1000.0,100000000.0,0.3
121,1,0.15666716666666666,0.07333333333333333,0.4999999999999999,0.0,0.0,0.0,0.0,0.0,0.0,0.0,0.0,0.0,1.0,1.0,1000.0,100000000.0,0.3
122,1,0.15666716666666666,0.07666666666666667,0.4999999999999999,0.0,0.0,0.0,0.0,0.0,0.0,0.0,0.0,0.0,1.0,1.0,1000.0,100000000.0,0.3
123,1,0.15333383333333334,0.08333333333333334,0.4999999999999998,0.0,0.0,0.0,0.0,0.0,0.0,0.0,0.0,0.0,1.0,1.0,1000.0,100000000.0,0.3
124,1,0.15333383333333334,0.08666666666666666,0.4999999999999998,0.0,0.0,0.0,0.0,0.0,0.0,0.0,0.0,0.0,1.0,1.0,1000.0,100000000.0,0.3
125,1,0.15666716666666666,0.08333333333333334,0.4999999999999998,0.0,0.0,0.0,0.0,0.0,0.0,0.0,0.0,0.0,1.0,1.0,1000.0,100000000.0,0.3
126,1,0.15666716666666666,0.08666666666666666,0.4999999999999997,0.0,0.0,0.0,0.0,0.0,0.0,0.0,0.0,0.0,1.0,1.0,1000.0,100000000.0,0.3
127,1,0.15333383333333334,0.09333333333333334,0.4999999999999991,0.0,0.0,0.0,0.0,0.0,0.0,0.0,0.0,0.0,1.0,1.0,1000.0,100000000.0,0.3
128,1,0.15333383333333334,0.09666666666666666,0.4999999999999991,0.0,0.0,0.0,0.0,0.0,0.0,0.0,0.0,0.0,1.0,1.0,1000.0,100000000.0,0.3
129,1,0.15666716666666666,0.09333333333333334,0.4999999999999991,0.0,0.0,0.0,0.0,0.0,0.0,0.0,0.0,0.0,1.0,1.0,1000.0,100000000.0,0.3
130,1,0.15666716666666666,0.09666666666666666,0.49999999999999906,0.0,0.0,0.0,0.0,0.0,0.0,0.0,0.0,0.0,1.0,1.0,1000.0,100000000.0,0.3
131,1,0.15333383333333334,0.10333333333333335,0.4999999999999998,0.0,0.0,0.0,0.0,0.0,0.0,0.0,0.0,0.0,1.0,1.0,1000.0,100000000.0,0.3
132,1,0.15333383333333334,0.10666666666666666,0.4999999999999998,0.0,0.0,0.0,0.0,0.0,0.0,0.0,0.0,0.0,1.0,1.0,1000.0,100000000.0,0.3
133,1,0.15666716666666666,0.10333333333333335,0.4999999999999998,0.0,0.0,0.0,0.0,0.0,0.0,0.0,0.0,0.0,1.0,1.0,1000.0,100000000.0,0.3
134,1,0.15666716666666666,0.10666666666666666,0.4999999999999997,0.0,0.0,0.0,0.0,0.0,0.0,0.0,0.0,0.0,1.0,1.0,1000.0,100000000.0,0.3
135,1,0.15333383333333334,0.11333333333333334,0.4999999999999998,0.0,0.0,0.0,0.0,0.0,0.0,0.0,0.0,0.0,1.0,1.0,1000.0,100000000.0,0.3
136,1,0.15333383333333334,0.11666666666666667,0.4999999999999998,0.0,0.0,0.0,0.0,0.0,0.0,0.0,0.0,0.0,1.0,1.0,1000.0,100000000.0,0.3
137,1,0.15666716666666666,0.11333333333333334,0.4999999999999998,0.0,0.0,0.0,0.0,0.0,0.0,0.0,0.0,0.0,1.0,1.0,1000.0,100000000.0,0.3
138,1,0.15666716666666666,0.11666666666666667,0.4999999999999999,0.0,0.0,0.0,0.0,0.0,0.0,0.0,0.0,0.0,1.0,1.0,1000.0,100000000.0,0.3
139,1,0.15333383333333334,0.12333333333333334,0.4999999999999991,0.0,0.0,0.0,0.0,0.0,0.0,0.0,0.0,0.0,1.0,1.0,1000.0,100000000.0,0.3
140,1,0.15333383333333334,0.12666666666666665,0.4999999999999991,0.0,0.0,0.0,0.0,0.0,0.0,0.0,0.0,0.0,1.0,1.0,1000.0,100000000.0,0.3
141,1,0.15666716666666666,0.12333333333333334,0.4999999999999991,0.0,0.0,0.0,0.0,0.0,0.0,0.0,0.0,0.0,1.0,1.0,1000.0,100000000.0,0.3
142,1,0.15666716666666666,0.12666666666666665,0.49999999999999906,0.0,0.0,0.0,0.0,0.0,0.0,0.0,0.0,0.0,1.0,1.0,1000.0,100000000.0,0.3
143,1,0.15333383333333334,0.13333333333333333,0.49999999999999906,0.0,-4.782499183000674e-13,0.0,0.0,-2.0496425070002888e-13,0.0,0.0,0.0,0.0,1.0,1.0,1000.0,100000000.0,0.3
144,1,0.15333383333333334,0.13666666666666666,0.4999999999999991,0.0,0.0,0.0,0.0,0.0,0.0,0.0,0.0,0.0,1.0,1.0,1000.0,100000000.0,0.3
145,1,0.15666716666666666,0.13333333333333333,0.4999999999999991,0.0,-4.782499183000674e-13,0.0,0.0,-2.0496425070002888e-13,0.0,0.0,0.0,0.0,1.0,1.0,1000.0,100000000.0,0.3
146,1,0.15666716666666666,0.13666666666666666,0.49999999999999906,0.0,0.0,0.0,0.0,0.0,0.0,0.0,0.0,0.0,1.0,1.0,1000.0,100000000.0,0.3
147,1,0.15333383333333334,0.14333333333333334,0.5000000000000006,0.0,0.0,0.0,0.0,0.0,0.0,0.0,0.0,0.0,1.0,1.0,1000.0,100000000.0,0.3
148,1,0.15333383333333334,0.14666666666666667,0.5000000000000004,0.0,0.0,0.0,0.0,0.0,0.0,0.0,0.0,0.0,1.0,1.0,1000.0,100000000.0,0.3
149,1,0.15666716666666666,0.14333333333333334,0.5000000000000006,0.0,0.0,0.0,0.0,0.0,0.0,0.0,0.0,0.0,1.0,1.0,1000.0,100000000.0,0.3
150,1,0.15666716666666666,0.14666666666666667,0.5000000000000006,0.0,0.0,0.0,0.0,0.0,0.0,0.0,0.0,0.0,1.0,1.0,1000.0,100000000.0,0.3
151,1,0.15333383333333334,0.15333333333333335,0.4999999999999991,0.0,0.0,0.0,0.0,0.0,0.0,0.0,0.0,0.0,1.0,1.0,1000.0,100000000.0,0.3
152,1,0.15333383333333334,0.15666666666666668,0.4999999999999991,0.0,-9.564998366001349e-13,0.0,0.0,-4.0992850140005776e-13,0.0,0.0,0.0,0.0,1.0,1.0,1000.0,100000000.0,0.3
153,1,0.15666716666666666,0.15333333333333335,0.4999999999999991,0.0,0.0,0.0,0.0,0.0,0.0,0.0,0.0,0.0,1.0,1.0,1000.0,100000000.0,0.3
154,1,0.15666716666666666,0.15666666666666668,0.4999999999999991,0.0,-9.564998366001349e-13,0.0,0.0,-4.0992850140005776e-13,0.0,0.0,0.0,0.0,1.0,1.0,1000.0,100000000.0,0.3
155,1,0.15333383333333334,0.16333333333333333,0.49999999999999906,0.0,-4.782499183000674e-13,0.0,0.0,-2.0496425070002888e-13,0.0,0.0,0.0,0.0,1.0,1.0,1000.0,100000000.0,0.3
156,1,0.15666716666666666,0.16333333333333333,0.4999999999999991,0.0,-4.782499183000674e-13,0.0,0.0,-2.0496425070002888e-13,0.0,0.0,0.0,0.0,1.0,1.0,1000.0,100000000.0,0.3
157,1,0.15666716666666666,0.16666666666666669,0.4999999999999991,0.0,-9.564998366001349e-13,0.0,0.0,-4.0992850140005776e-13,0.0,0.0,0.0,0.0,1.0,1.0,1000.0,100000000.0,0.3
158,1,0.16333383333333332,0.03333333333333333,0.4999999999999995,0.0,0.0,0.0,0.0,0.0,0.0,0.0,0.0,0.0,1.0,1.0,1000.0,100000000.0,0.3
159,1,0.16333383333333332,0.03666666666666667,0.4999999999999995,0.0,0.0,0.0,0.0,0.0,0.0,0.0,0.0,0.0,1.0,1.0,1000.0,100000000.0,0.3
160,1,0.16666716666666667,0.03333333333333333,0.49999999999999956,0.0,0.0,0.0,0.0,0.0,0.0,0.0,0.0,0.0,1.0,1.0,1000.0,100000000.0,0.3
161,1,0.16666716666666667,0.03666666666666667,0.49999999999999956,0.0,0.0,0.0,0.0,0.0,0.0,0.0,0.0,0.0,1.0,1.0,1000.0,100000000.0,0.3
162,1,0.16333383333333332,0.04333333333333333,0.49999999999999944,0.0,4.782499183000674e-13,0.0,0.0,2.0496425070002888e-13,0.0,0.0,0.0,0.0,1.0,1.0,1000.0,100000000.0,0.3
163,1,0.16333383333333332,0.04666666666666667,0.4999999999999995,0.0,0.0,0.0,0.0,0.0,0.0,0.0,0.0,0.0,1.0,1.0,1000.0,100000000.0,0.3
164,1,0.16666716666666667,0.04333333333333333,0.49999999999999944,0.0,4.782499183000674e-13,0.0,0.0,2.0496425070002888e-13,0.0,0.0,0.0,0.0,1.0,1.0,1000.0,100000000.0,0.3
165,1,0.16666716666666667,0.04666666666666667,0.49999999999999956,0.0,0.0,0.0,0.0,0.0,0.0,0.0,0.0,0.0,1.0,1.0,1000.0,100000000.0,0.3
166,1,0.16333383333333332,0.05333333333333333,0.49999999999999983,0.0,0.0,0.0,0.0,0.0,0.0,0.0,0.0,0.0,1.0,1.0,1000.0,100000000.0,0.3
167,1,0.16333383333333332,0.05666666666666667,0.49999999999999983,0.0,0.0,0.0,0.0,0.0,0.0,0.0,0.0,0.0,1.0,1.0,1000.0,100000000.0,0.3
168,1,0.16666716666666667,0.05333333333333333,0.4999999999999999,0.0,0.0,0.0,0.0,0.0,0.0,0.0,0.0,0.0,1.0,1.0,1000.0,100000000.0,0.3
169,1,0.16666716666666667,0.05666666666666667,0.4999999999999999,0.0,0.0,0.0,0.0,0.0,0.0,0.0,0.0,0.0,1.0,1.0,1000.0,100000000.0,0.3
170,1,0.16333383333333332,0.06333333333333332,0.4999999999999991,0.0,-4.782499183000674e-13,0.0,0.0,-2.0496425070002888e-13,0.0,0.0,0.0,0.0,1.0,1.0,1000.0,100000000.0,0.3
171,1,0.16333383333333332,0.06666666666666667,0.4999999999999991,0.0,0.0,0.0,0.0,0.0,0.0,0.0,0.0,0.0,1.0,1.0,1000.0,100000000.0,0.3
172,1,0.16666716666666667,0.06333333333333332,0.4999999999999991,0.0,-4.782499183000674e-13,0.0,0.0,-2.0496425070002888e-13,0.0,0.0,0.0,0.0,1.0,1.0,1000.0,100000000.0,0.3
173,1,0.16666716666666667,0.06666666666666667,0.49999999999999906,0.0,0.0,0.0,0.0,0.0,0.0,0.0,0.0,0.0,1.0,1.0,1000.0,100000000.0,0.3
174,1,0.16333383333333332,0.07333333333333333,0.49999999999999983,0.0,0.0,0.0,0.0,0.0,0.0,0.0,0.0,0.0,1.0,1.0,1000.0,100000000.0,0.3
175,1,0.16333383333333332,0.07666666666666667,0.49999999999999983,0.0,0.0,0.0,0.0,0.0,0.0,0.0,0.0,0.0,1.0,1.0,1000.0,100000000.0,0.3
176,1,0.16666716666666667,0.07333333333333333,0.4999999999999999,0.0,0.0,0.0,0.0,0.0,0.0,0.0,0.0,0.0,1.0,1.0,1000.0,100000000.0,0.3
177,1,0.16666716666666667,0.07666666666666667,0.4999999999999999,0.0,0.0,0.0,0.0,0.0,0.0,0.0,0.0,0.0,1.0,1.0,1000.0,100000000.0,0.3
178,1,0.16333383333333332,0.08333333333333334,0.49999999999999983,0.0,0.0,0.0,0.0,0.0,0.0,0.0,0.0,0.0,1.0,1.0,1000.0,100000000.0,0.3
179,1,0.16333383333333332,0.08666666666666666,0.4999999999999998,0.0,0.0,0.0,0.0,0.0,0.0,0.0,0.0,0.0,1.0,1.0,1000.0,100000000.0,0.3
180,1,0.16666716666666667,0.08333333333333334,0.4999999999999998,0.0,0.0,0.0,0.0,0.0,0.0,0.0,0.0,0.0,1.0,1.0,1000.0,100000000.0,0.3
181,1,0.16666716666666667,0.08666666666666666,0.4999999999999997,0.0,0.0,0.0,0.0,0.0,0.0,0.0,0.0,0.0,1.0,1.0,1000.0,100000000.0,0.3
182,1,0.16333383333333332,0.09333333333333334,0.49999999999999917,0.0,0.0,0.0,0.0,0.0,0.0,0.0,0.0,0.0,1.0,1.0,1000.0,100000000.0,0.3
183,1,0.16333383333333332,0.09666666666666666,0.4999999999999991,0.0,0.0,0.0,0.0,0.0,0.0,0.0,0.0,0.0,1.0,1.0,1000.0,100000000.0,0.3
184,1,0.16666716666666667,0.09333333333333334,0.4999999999999991,0.0,0.0,0.0,0.0,0.0,0.0,0.0,0.0,0.0,1.0,1.0,1000.0,100000000.0,0.3
185,1,0.16666716666666667,0.09666666666666666,0.49999999999999906,0.0,0.0,0.0,0.0,0.0,0.0,0.0,0.0,0.0,1.0,1.0,1000.0,100000000.0,0.3
186,1,0.16333383333333332,0.10333333333333335,0.49999999999999983,0.0,0.0,0.0,0.0,0.0,0.0,0.0,0.0,0.0,1.0,1.0,1000.0,100000000.0,0.3
187,1,0.16333383333333332,0.10666666666666666,0.4999999999999998,0.0,0.0,0.0,0.0,0.0,0.0,0.0,0.0,0.0,1.0,1.0,1000.0,100000000.0,0.3
188,1,0.16666716666666667,0.10333333333333335,0.4999999999999998,0.0,0.0,0.0,0.0,0.0,0.0,0.0,0.0,0.0,1.0,1.0,1000.0,100000000.0,0.3
189,1,0.16666716666666667,0.10666666666666666,0.4999999999999997,0.0,0.0,0.0,0.0,0.0,0.0,0.0,0.0,0.0,1.0,1.0,1000.0,100000000.0,0.3
190,1,0.16333383333333332,0.11333333333333334,0.49999999999999983,0.0,0.0,0.0,0.0,0.0,0.0,0.0,0.0,0.0,1.0,1.0,1000.0,100000000.0,0.3
191,1,0.16333383333333332,0.11666666666666667,0.49999999999999983,0.0,0.0,0.0,0.0,0.0,0.0,0.0,0.0,0.0,1.0,1.0,1000.0,100000000.0,0.3
192,1,0.16666716666666667,0.11333333333333334,0.4999999999999998,0.0,0.0,0.0,0.0,0.0,0.0,0.0,0.0,0.0,1.0,1.0,1000.0,100000000.0,0.3
193,1,0.16666716666666667,0.11666666666666667,0.4999999999999999,0.0,0.0,0.0,0.0,0.0,0.0,0.0,0.0,0.0,1.0,1.0,1000.0,100000000.0,0.3
194,1,0.16333383333333332,0.12333333333333334,0.49999999999999917,0.0,0.0,0.0,0.0,0.0,0.0,0.0,0.0,0.0,1.0,1.0,1000.0,100000000.0,0.3
195,1,0.16333383333333332,0.12666666666666665,0.4999999999999991,0.0,0.0,0.0,0.0,0.0,0.0,0.0,0.0,0.0,1.0,1.0,1000.0,100000000.0,0.3
196,1,0.16666716666666667,0.12333333333333334,0.4999999999999991,0.0,0.0,0.0,0.0,0.0,0.0,0.0,0.0,0.0,1.0,1.0,1000.0,100000000.0,0.3
197,1,0.16666716666666667,0.12666666666666665,0.49999999999999906,0.0,0.0,0.0,0.0,0.0,0.0,0.0,0.0,0.0,1.0,1.0,1000.0,100000000.0,0.3
198,1,0.16333383333333332,0.13333333333333333,0.4999999999999991,0.0,-4.782499183000674e-13,0.0,0.0,-2.0496425070002888e-13,0.0,0.0,0.0,0.0,1.0,1.0,1000.0,100000000.0,0.3
199,1,0.16333383333333332,0.13666666666666666,0.4999999999999991,0.0,0.0,0.0,0.0,0.0,0.0,0.0,0.0,0.0,1.0,1.0,1000.0,100000000.0,0.3
200,1,0.16666716666666667,0.13333333333333333,0.4999999999999991,0.0,-4.782499183000674e-13,0.0,0.0,-2.0496425070002888e-13,0.0,0.0,0.0,0.0,1.0,1.0,1000.0,100000000.0,0.3
201,1,0.16666716666666667,0.13666666666666666,0.49999999999999906,0.0,0.0,0.0,0.0,0.0,0.0,0.0,0.0,0.0,1.0,1.0,1000.0,100000000.0,0.3
202,1,0.16333383333333332,0.14333333333333334,0.5000000000000004,0.0,0.0,0.0,0.0,0.0,0.0,0.0,0.0,0.0,1.0,1.0,1000.0,100000000.0,0.3
203,1,0.16333383333333332,0.14666666666666667,0.5000000000000004,0.0,0.0,0.0,0.0,0.0,0.0,0.0,0.0,0.0,1.0,1.0,1000.0,100000000.0,0.3
204,1,0.16666716666666667,0.14333333333333334,0.5000000000000006,0.0,0.0,0.0,0.0,0.0,0.0,0.0,0.0,0.0,1.0,1.0,1000.0,100000000.0,0.3
205,1,0.16666716666666667,0.14666666666666667,0.5000000000000006,0.0,0.0,0.0,0.0,0.0,0.0,0.0,0.0,0.0,1.0,1.0,1000.0,100000000.0,0.3
206,1,0.16333383333333332,0.15333333333333335,0.49999999999999917,0.0,0.0,0.0,0.0,0.0,0.0,0.0,0.0,0.0,1.0,1.0,1000.0,100000000.0,0.3
207,1,0.16333383333333332,0.15666666666666668,0.4999999999999991,0.0,-9.564998366001349e-13,0.0,0.0,-4.0992850140005776e-13,0.0,0.0,0.0,0.0,1.0,1.0,1000.0,100000000.0,0.3
208,1,0.16666716666666667,0.15333333333333335,0.4999999999999991,0.0,0.0,0.0,0.0,0.0,0.0,0.0,0.0,0.0,1.0,1.0,1000.0,100000000.0,0.3
209,1,0.16666716666666667,0.15666666666666668,0.4999999999999991,0.0,-9.564998366001349e-13,0.0,0.0,-4.0992850140005776e-13,0.0,0.0,0.0,0.0,1.0,1.0,1000.0,100000000.0,0.3
210,1,0.16333383333333332,0.16333333333333333,0.4999999999999991,0.0,-4.782499183000674e-13,0.0,0.0,-2.0496425070002888e-13,0.0,0.0,0.0,0.0,1.0,1.0,1000.0,100000000.0,0.3
211,1,0.16333383333333332,0.16666666666666669,0.4999999999999991,0.0,-9.564998366001349e-13,0.0,0.0,-4.0992850140005776e-13,0.0,0.0,0.0,0.0,1.0,1.0,1000.0,100000000.0,0.3
212,1,0.16666716666666667,0.16333333333333333,0.4999999999999991,0.0,-4.782499183000674e-13,0.0,0.0,-2.0496425070002888e-13,0.0,0.0,0.0,0.0,1.0,1.0,1000.0,100000000.0,0.3
213,1,0.16666716666666667,0.16666666666666669,0.4999999999999991,0.0,-9.564998366001349e-13,0.0,0.0,-4.0992850140005776e-13,0.0,0.0,0.0,0.0,1.0,1.0,1000.0,100000000.0,0.3
214,1,0.1733338333333333,0.026666666666666665,0.5000000000000011,0.0,0.0,0.0,0.0,0.0,0.0,0.0,0.0,0.0,1.0,1.0,1000.0,100000000.0,0.3
215,1,0.17666716666666668,0.026666666666666665,0.5000000000000011,0.0,0.0,0.0,0.0,0.0,0.0,0.0,0.0,0.0,1.0,1.0,1000.0,100000000.0,0.3
216,1,0.1733338333333333,0.03333333333333333,0.5000000000000009,0.0,0.0,0.0,0.0,0.0,0.0,0.0,0.0,0.0,1.0,1.0,1000.0,100000000.0,0.3
217,1,0.1733338333333333,0.03666666666666667,0.5000000000000009,0.0,0.0,0.0,0.0,0.0,0.0,0.0,0.0,0.0,1.0,1.0,1000.0,100000000.0,0.3
218,1,0.17666716666666668,0.03333333333333333,0.5000000000000009,0.0,0.0,0.0,0.0,0.0,0.0,0.0,0.0,0.0,1.0,1.0,1000.0,100000000.0,0.3
219,1,0.17666716666666668,0.03666666666666667,0.5000000000000009,0.0,0.0,0.0,0.0,0.0,0.0,0.0,0.0,0.0,1.0,1.0,1000.0,100000000.0,0.3
220,1,0.1733338333333333,0.04333333333333333,0.5000000000000009,0.0,4.782499183000674e-13,0.0,0.0,2.0496425070002888e-13,0.0,0.0,0.0,0.0,1.0,1.0,1000.0,100000000.0,0.3
221,1,0.1733338333333333,0.04666666666666667,0.5000000000000009,0.0,0.0,0.0,0.0,0.0,0.0,0.0,0.0,0.0,1.0,1.0,1000.0,100000000.0,0.3
222,1,0.17666716666666668,0.04333333333333333,0.5000000000000009,0.0,4.782499183000674e-13,0.0,0.0,2.0496425070002888e-13,0.0,0.0,0.0,0.0,1.0,1.0,1000.0,100000000.0,0.3
223,1,0.17666716666666668,0.04666666666666667,0.5000000000000009,0.0,0.0,0.0,0.0,0.0,0.0,0.0,0.0,0.0,1.0,1.0,1000.0,100000000.0,0.3
224,1,0.1733338333333333,0.05333333333333333,0.5000000000000012,0.0,0.0,0.0,0.0,0.0,0.0,0.0,0.0,0.0,1.0,1.0,1000.0,100000000.0,0.3
225,1,0.1733338333333333,0.05666666666666667,0.5000000000000013,0.0,0.0,0.0,0.0,0.0,0.0,0.0,0.0,0.0,1.0,1.0,1000.0,100000000.0,0.3
226,1,0.17666716666666668,0.05333333333333333,0.5000000000000013,0.0,0.0,0.0,0.0,0.0,0.0,0.0,0.0,0.0,1.0,1.0,1000.0,100000000.0,0.3
227,1,0.17666716666666668,0.05666666666666667,0.5000000000000012,0.0,0.0,0.0,0.0,0.0,0.0,0.0,0.0,0.0,1.0,1.0,1000.0,100000000.0,0.3
228,1,0.1733338333333333,0.06333333333333332,0.5000000000000006,0.0,-4.782499183000674e-13,0.0,0.0,-2.0496425070002888e-13,0.0,0.0,0.0,0.0,1.0,1.0,1000.0,100000000.0,0.3
229,1,0.1733338333333333,0.06666666666666667,0.5000000000000006,0.0,0.0,0.0,0.0,0.0,0.0,0.0,0.0,0.0,1.0,1.0,1000.0,100000000.0,0.3
230,1,0.17666716666666668,0.06333333333333332,0.5000000000000006,0.0,-4.782499183000674e-13,0.0,0.0,-2.0496425070002888e-13,0.0,0.0,0.0,0.0,1.0,1.0,1000.0,100000000.0,0.3
231,1,0.17666716666666668,0.06666666666666667,0.5000000000000004,0.0,0.0,0.0,0.0,0.0,0.0,0.0,0.0,0.0,1.0,1.0,1000.0,100000000.0,0.3
232,1,0.1733338333333333,0.07333333333333333,0.5000000000000012,0.0,0.0,0.0,0.0,0.0,0.0,0.0,0.0,0.0,1.0,1.0,1000.0,100000000.0,0.3
233,1,0.1733338333333333,0.07666666666666667,0.5000000000000013,0.0,0.0,0.0,0.0,0.0,0.0,0.0,0.0,0.0,1.0,1.0,1000.0,100000000.0,0.3
234,1,0.17666716666666668,0.07333333333333333,0.5000000000000013,0.0,0.0,0.0,0.0,0.0,0.0,0.0,0.0,0.0,1.0,1.0,1000.0,100000000.0,0.3
235,1,0.17666716666666668,0.07666666666666667,0.5000000000000012,0.0,0.0,0.0,0.0,0.0,0.0,0.0,0.0,0.0,1.0,1.0,1000.0,100000000.0,0.3
236,1,0.1733338333333333,0.08333333333333334,0.5000000000000011,0.0,0.0,0.0,0.0,0.0,0.0,0.0,0.0,0.0,1.0,1.0,1000.0,100000000.0,0.3
237,1,0.1733338333333333,0.08666666666666666,0.5000000000000012,0.0,0.0,0.0,0.0,0.0,0.0,0.0,0.0,0.0,1.0,1.0,1000.0,100000000.0,0.3
238,1,0.17666716666666668,0.08333333333333334,0.5000000000000011,0.0,0.0,0.0,0.0,0.0,0.0,0.0,0.0,0.0,1.0,1.0,1000.0,100000000.0,0.3
239,1,0.17666716666666668,0.08666666666666666,0.5000000000000011,0.0,0.0,0.0,0.0,0.0,0.0,0.0,0.0,0.0,1.0,1.0,1000.0,100000000.0,0.3
240,1,0.1733338333333333,0.09333333333333334,0.5000000000000004,0.0,0.0,0.0,0.0,0.0,0.0,0.0,0.0,0.0,1.0,1.0,1000.0,100000000.0,0.3
241,1,0.1733338333333333,0.09666666666666666,0.5000000000000006,0.0,0.0,0.0,0.0,0.0,0.0,0.0,0.0,0.0,1.0,1.0,1000.0,100000000.0,0.3
242,1,0.17666716666666668,0.09333333333333334,0.5000000000000004,0.0,0.0,0.0,0.0,0.0,0.0,0.0,0.0,0.0,1.0,1.0,1000.0,100000000.0,0.3
243,1,0.17666716666666668,0.09666666666666666,0.5000000000000004,0.0,0.0,0.0,0.0,0.0,0.0,0.0,0.0,0.0,1.0,1.0,1000.0,100000000.0,0.3
244,1,0.1733338333333333,0.10333333333333335,0.5000000000000011,0.0,0.0,0.0,0.0,0.0,0.0,0.0,0.0,0.0,1.0,1.0,1000.0,100000000.0,0.3
245,1,0.1733338333333333,0.10666666666666666,0.5000000000000012,0.0,0.0,0.0,0.0,0.0,0.0,0.0,0.0,0.0,1.0,1.0,1000.0,100000000.0,0.3
246,1,0.17666716666666668,0.10333333333333335,0.5000000000000011,0.0,0.0,0.0,0.0,0.0,0.0,0.0,0.0,0.0,1.0,1.0,1000.0,100000000.0,0.3
247,1,0.17666716666666668,0.10666666666666666,0.5000000000000011,0.0,0.0,0.0,0.0,0.0,0.0,0.0,0.0,0.0,1.0,1.0,1000.0,100000000.0,0.3
248,1,0.1733338333333333,0.11333333333333334,0.5000000000000011,0.0,0.0,0.0,0.0,0.0,0.0,0.0,0.0,0.0,1.0,1.0,1000.0,100000000.0,0.3
249,1,0.1733338333333333,0.11666666666666667,0.5000000000000013,0.0,0.0,0.0,0.0,0.0,0.0,0.0,0.0,0.0,1.0,1.0,1000.0,100000000.0,0.3
250,1,0.17666716666666668,0.11333333333333334,0.5000000000000011,0.0,0.0,0.0,0.0,0.0,0.0,0.0,0.0,0.0,1.0,1.0,1000.0,100000000.0,0.3
251,1,0.17666716666666668,0.11666666666666667,0.5000000000000012,0.0,0.0,0.0,0.0,0.0,0.0,0.0,0.0,0.0,1.0,1.0,1000.0,100000000.0,0.3
252,1,0.1733338333333333,0.12333333333333334,0.5000000000000004,0.0,0.0,0.0,0.0,0.0,0.0,0.0,0.0,0.0,1.0,1.0,1000.0,100000000.0,0.3
253,1,0.1733338333333333,0.12666666666666665,0.5000000000000006,0.0,0.0,0.0,0.0,0.0,0.0,0.0,0.0,0.0,1.0,1.0,1000.0,100000000.0,0.3
254,1,0.17666716666666668,0.12333333333333334,0.5000000000000004,0.0,0.0,0.0,0.0,0.0,0.0,0.0,0.0,0.0,1.0,1.0,1000.0,100000000.0,0.3
255,1,0.17666716666666668,0.12666666666666665,0.5000000000000004,0.0,0.0,0.0,0.0,0.0,0.0,0.0,0.0,0.0,1.0,1.0,1000.0,100000000.0,0.3
256,1,0.1733338333333333,0.13333333333333333,0.5000000000000006,0.0,-4.782499183000674e-13,0.0,0.0,-2.0496425070002888e-13,0.0,0.0,0.0,0.0,1.0,1.0,1000.0,100000000.0,0.3
257,1,0.1733338333333333,0.13666666666666666,0.5000000000000006,0.0,0.0,0.0,0.0,0.0,0.0,0.0,0.0,0.0,1.0,1.0,1000.0,100000000.0,0.3
258,1,0.17666716666666668,0.13333333333333333,0.5000000000000006,0.0,-4.782499183000674e-13,0.0,0.0,-2.0496425070002888e-13,0.0,0.0,0.0,0.0,1.0,1.0,1000.0,100000000.0,0.3
259,1,0.17666716666666668,0.13666666666666666,0.5000000000000004,0.0,0.0,0.0,0.0,0.0,0.0,0.0,0.0,0.0,1.0,1.0,1000.0,100000000.0,0.3
260,1,0.1733338333333333,0.14333333333333334,0.5000000000000019,0.0,0.0,0.0,0.0,0.0,0.0,0.0,0.0,0.0,1.0,1.0,1000.0,100000000.0,0.3
261,1,0.1733338333333333,0.14666666666666667,0.500000000000002,0.0,0.0,0.0,0.0,0.0,0.0,0.0,0.0,0.0,1.0,1.0,1000.0,100000000.0,0.3
262,1,0.17666716666666668,0.14333333333333334,0.500000000000002,0.0,0.0,0.0,0.0,0.0,0.0,0.0,0.0,0.0,1.0,1.0,1000.0,100000000.0,0.3
263,1,0.17666716666666668,0.14666666666666667,0.5000000000000019,0.0,0.0,0.0,0.0,0.0,0.0,0.0,0.0,0.0,1.0,1.0,1000.0,100000000.0,0.3
264,1,0.1733338333333333,0.15333333333333335,0.5000000000000004,0.0,0.0,0.0,0.0,0.0,0.0,0.0,0.0,0.0,1.0,1.0,1000.0,100000000.0,0.3
265,1,0.1733338333333333,0.15666666666666668,0.5000000000000006,0.0,-9.564998366001349e-13,0.0,0.0,-4.0992850140005776e-13,0.0,0.0,0.0,0.0,1.0,1.0,1000.0,100000000.0,0.3
266,1,0.17666716666666668,0.15333333333333335,0.5000000000000004,0.0,0.0,0.0,0.0,0.0,0.0,0.0,0.0,0.0,1.0,1.0,1000.0,100000000.0,0.3
267,1,0.17666716666666668,0.15666666666666668,0.5000000000000006,0.0,-9.564998366001349e-13,0.0,0.0,-4.0992850140005776e-13,0.0,0.0,0.0,0.0,1.0,1.0,1000.0,100000000.0,0.3
268,1,0.1733338333333333,0.16333333333333333,0.5000000000000006,0.0,-4.782499183000674e-13,0.0,0.0,-2.0496425070002888e-13,0.0,0.0,0.0,0.0,1.0,1.0,1000.0,100000000.0,0.3
269,1,0.1733338333333333,0.16666666666666669,0.5000000000000006,0.0,-9.564998366001349e-13,0.0,0.0,-4.0992850140005776e-13,0.0,0.0,0.0,0.0,1.0,1.0,1000.0,100000000.0,0.3
270,1,0.17666716666666668,0.16333333333333333,0.5000000000000006,0.0,-4.782499183000674e-13,0.0,0.0,-2.0496425070002888e-13,0.0,0.0,0.0,0.0,1.0,1.0,1000.0,100000000.0,0.3
271,1,0.17666716666666668,0.16666666666666669,0.5000000000000006,0.0,-9.564998366001349e-13,0.0,0.0,-4.0992850140005776e-13,0.0,0.0,0.0,0.0,1.0,1.0,1000.0,100000000.0,0.3
272,1,0.1733338333333333,0.1733333333333333,0.5000000000000019,0.0,-4.782499183000674e-13,0.0,0.0,-2.0496425070002888e-13,0.0,0.0,0.0,0.0,1.0,1.0,1000.0,100000000.0,0.3
273,1,0.17666716666666668,0.1733333333333333,0.5000000000000019,0.0,-4.782499183000674e-13,0.0,0.0,-2.0496425070002888e-13,0.0,0.0,0.0,0.0,1.0,1.0,1000.0,100000000.0,0.3
274,1,0.1833338333333333,0.023333333333333334,0.49999999999999967,0.0,0.0,0.0,0.0,0.0,0.0,0.0,0.0,0.0,1.0,1.0,1000.0,100000000.0,0.3
275,1,0.1833338333333333,0.026666666666666665,0.49999999999999967,0.0,0.0,0.0,0.0,0.0,0.0,0.0,0.0,0.0,1.0,1.0,1000.0,100000000.0,0.3
276,1,0.18666716666666666,0.023333333333333334,0.49999999999999967,0.0,0.0,0.0,0.0,0.0,0.0,0.0,0.0,0.0,1.0,1.0,1000.0,100000000.0,0.3
277,1,0.18666716666666666,0.026666666666666665,0.49999999999999967,0.0,0.0,0.0,0.0,0.0,0.0,0.0,0.0,0.0,1.0,1.0,1000.0,100000000.0,0.3
278,1,0.1833338333333333,0.03333333333333333,0.4999999999999995,0.0,0.0,0.0,0.0,0.0,0.0,0.0,0.0,0.0,1.0,1.0,1000.0,100000000.0,0.3
279,1,0.1833338333333333,0.03666666666666667,0.4999999999999995,0.0,0.0,0.0,0.0,0.0,0.0,0.0,0.0,0.0,1.0,1.0,1000.0,100000000.0,0.3
280,1,0.18666716666666666,0.03333333333333333,0.49999999999999956,0.0,0.0,0.0,0.0,0.0,0.0,0.0,0.0,0.0,1.0,1.0,1000.0,100000000.0,0.3
281,1,0.18666716666666666,0.03666666666666667,0.49999999999999956,0.0,0.0,0.0,0.0,0.0,0.0,0.0,0.0,0.0,1.0,1.0,1000.0,100000000.0,0.3
282,1,0.1833338333333333,0.04333333333333333,0.49999999999999944,0.0,4.782499183000674e-13,0.0,0.0,2.0496425070002888e-13,0.0,0.0,0.0,0.0,1.0,1.0,1000.0,100000000.0,0.3
283,1,0.1833338333333333,0.04666666666666667,0.4999999999999995,0.0,0.0,0.0,0.0,0.0,0.0,0.0,0.0,0.0,1.0,1.0,1000.0,100000000.0,0.3
284,1,0.18666716666666666,0.04333333333333333,0.49999999999999944,0.0,4.782499183000674e-13,0.0,0.0,2.0496425070002888e-13,0.0,0.0,0.0,0.0,1.0,1.0,1000.0,100000000.0,0.3
285,1,0.18666716666666666,0.04666666666666667,0.49999999999999956,0.0,0.0,0.0,0.0,0.0,0.0,0.0,0.0,0.0,1.0,1.0,1000.0,100000000.0,0.3
286,1,0.1833338333333333,0.05333333333333333,0.49999999999999983,0.0,0.0,0.0,0.0,0.0,0.0,0.0,0.0,0.0,1.0,1.0,1000.0,100000000.0,0.3
287,1,0.1833338333333333,0.05666666666666667,0.49999999999999983,0.0,0.0,0.0,0.0,0.0,0.0,0.0,0.0,0.0,1.0,1.0,1000.0,100000000.0,0.3
288,1,0.18666716666666666,0.05333333333333333,0.4999999999999999,0.0,0.0,0.0,0.0,0.0,0.0,0.0,0.0,0.0,1.0,1.0,1000.0,100000000.0,0.3
289,1,0.18666716666666666,0.05666666666666667,0.4999999999999999,0.0,0.0,0.0,0.0,0.0,0.0,0.0,0.0,0.0,1.0,1.0,1000.0,100000000.0,0.3
290,1,0.1833338333333333,0.06333333333333332,0.4999999999999991,0.0,-4.782499183000674e-13,0.0,0.0,-2.0496425070002888e-13,0.0,0.0,0.0,0.0,1.0,1.0,1000.0,100000000.0,0.3
291,1,0.1833338333333333,0.06666666666666667,0.4999999999999991,0.0,0.0,0.0,0.0,0.0,0.0,0.0,0.0,0.0,1.0,1.0,1000.0,100000000.0,0.3
292,1,0.18666716666666666,0.06333333333333332,0.4999999999999991,0.0,-4.782499183000674e-13,0.0,0.0,-2.0496425070002888e-13,0.0,0.0,0.0,0.0,1.0,1.0,1000.0,100000000.0,0.3
293,1,0.18666716666666666,0.06666666666666667,0.49999999999999906,0.0,0.0,0.0,0.0,0.0,0.0,0.0,0.0,0.0,1.0,1.0,1000.0,100000000.0,0.3
294,1,0.1833338333333333,0.07333333333333333,0.49999999999999983,0.0,0.0,0.0,0.0,0.0,0.0,0.0,0.0,0.0,1.0,1.0,1000.0,100000000.0,0.3
295,1,0.1833338333333333,0.07666666666666667,0.49999999999999983,0.0,0.0,0.0,0.0,0.0,0.0,0.0,0.0,0.0,1.0,1.0,1000.0,100000000.0,0.3
296,1,0.18666716666666666,0.07333333333333333,0.4999999999999999,0.0,0.0,0.0,0.0,0.0,0.0,0.0,0.0,0.0,1.0,1.0,1000.0,100000000.0,0.3
297,1,0.18666716666666666,0.07666666666666667,0.4999999999999999,0.0,0.0,0.0,0.0,0.0,0.0,0.0,0.0,0.0,1.0,1.0,1000.0,100000000.0,0.3
298,1,0.1833338333333333,0.08333333333333334,0.49999999999999983,0.0,0.0,0.0,0.0,0.0,0.0,0.0,0.0,0.0,1.0,1.0,1000.0,100000000.0,0.3
299,1,0.1833338333333333,0.08666666666666666,0.4999999999999998,0.0,0.0,0.0,0.0,0.0,0.0,0.0,0.0,0.0,1.0,1.0,1000.0,100000000.0,0.3
300,1,0.18666716666666666,0.08333333333333334,0.4999999999999998,0.0,0.0,0.0,0.0,0.0,0.0,0.0,0.0,0.0,1.0,1.0,1000.0,100000000.0,0.3
301,1,0.18666716666666666,0.08666666666666666,0.4999999999999997,0.0,0.0,0.0,0.0,0.0,0.0,0.0,0.0,0.0,1.0,1.0,1000.0,100000000.0,0.3
302,1,0.1833338333333333,0.09333333333333334,0.49999999999999917,0.0,0.0,0.0,0.0,0.0,0.0,0.0,0.0,0.0,1.0,1.0,1000.0,100000000.0,0.3
303,1,0.1833338333333333,0.09666666666666666,0.4999999999999991,0.0,0.0,0.0,0.0,0.0,0.0,0.0,0.0,0.0,1.0,1.0,1000.0,100000000.0,0.3
304,1,0.18666716666666666,0.09333333333333334,0.4999999999999991,0.0,0.0,0.0,0.0,0.0,0.0,0.0,0.0,0.0,1.0,1.0,1000.0,100000000.0,0.3
305,1,0.18666716666666666,0.09666666666666666,0.49999999999999906,0.0,0.0,0.0,0.0,0.0,0.0,0.0,0.0,0.0,1.0,1.0,1000.0,100000000.0,0.3
306,1,0.1833338333333333,0.10333333333333335,0.49999999999999983,0.0,0.0,0.0,0.0,0.0,0.0,0.0,0.0,0.0,1.0,1.0,1000.0,100000000.0,0.3
307,1,0.1833338333333333,0.10666666666666666,0.4999999999999998,0.0,0.0,0.0,0.0,0.0,0.0,0.0,0.0,0.0,1.0,1.0,1000.0,100000000.0,0.3
308,1,0.18666716666666666,0.10333333333333335,0.4999999999999998,0.0,0.0,0.0,0.0,0.0,0.0,0.0,0.0,0.0,1.0,1.0,1000.0,100000000.0,0.3
309,1,0.18666716666666666,0.10666666666666666,0.4999999999999997,0.0,0.0,0.0,0.0,0.0,0.0,0.0,0.0,0.0,1.0,1.0,1000.0,100000000.0,0.3
310,1,0.1833338333333333,0.11333333333333334,0.49999999999999983,0.0,0.0,0.0,0.0,0.0,0.0,0.0,0.0,0.0,1.0,1.0,1000.0,100000000.0,0.3
311,1,0.1833338333333333,0.11666666666666667,0.49999999999999983,0.0,0.0,0.0,0.0,0.0,0.0,0.0,0.0,0.0,1.0,1.0,1000.0,100000000.0,0.3
312,1,0.18666716666666666,0.11333333333333334,0.4999999999999998,0.0,0.0,0.0,0.0,0.0,0.0,0.0,0.0,0.0,1.0,1.0,1000.0,100000000.0,0.3
313,1,0.18666716666666666,0.11666666666666667,0.4999999999999999,0.0,0.0,0.0,0.0,0.0,0.0,0.0,0.0,0.0,1.0,1.0,1000.0,100000000.0,0.3
314,1,0.1833338333333333,0.12333333333333334,0.49999999999999917,0.0,0.0,0.0,0.0,0.0,0.0,0.0,0.0,0.0,1.0,1.0,1000.0,100000000.0,0.3
315,1,0.1833338333333333,0.12666666666666665,0.4999999999999991,0.0,0.0,0.0,0.0,0.0,0.0,0.0,0.0,0.0,1.0,1.0,1000.0,100000000.0,0.3
316,1,0.18666716666666666,0.12333333333333334,0.4999999999999991,0.0,0.0,0.0,0.0,0.0,0.0,0.0,0.0,0.0,1.0,1.0,1000.0,100000000.0,0.3
317,1,0.18666716666666666,0.12666666666666665,0.49999999999999906,0.0,0.0,0.0,0.0,0.0,0.0,0.0,0.0,0.0,1.0,1.0,1000.0,100000000.0,0.3
318,1,0.1833338333333333,0.13333333333333333,0.4999999999999991,0.0,-4.782499183000674e-13,0.0,0.0,-2.0496425070002888e-13,0.0,0.0,0.0,0.0,1.0,1.0,1000.0,100000000.0,0.3
319,1,0.1833338333333333,0.13666666666666666,0.4999999999999991,0.0,0.0,0.0,0.0,0.0,0.0,0.0,0.0,0.0,1.0,1.0,1000.0,100000000.0,0.3
320,1,0.18666716666666666,0.13333333333333333,0.4999999999999991,0.0,-4.782499183000674e-13,0.0,0.0,-2.0496425070002888e-13,0.0,0.0,0.0,0.0,1.0,1.0,1000.0,100000000.0,0.3
321,1,0.18666716666666666,0.13666666666666666,0.49999999999999906,0.0,0.0,0.0,0.0,0.0,0.0,0.0,0.0,0.0,1.0,1.0,1000.0,100000000.0,0.3
322,1,0.1833338333333333,0.14333333333333334,0.5000000000000004,0.0,0.0,0.0,0.0,0.0,0.0,0.0,0.0,0.0,1.0,1.0,1000.0,100000000.0,0.3
323,1,0.1833338333333333,0.14666666666666667,0.5000000000000004,0.0,0.0,0.0,0.0,0.0,0.0,0.0,0.0,0.0,1.0,1.0,1000.0,100000000.0,0.3
324,1,0.18666716666666666,0.14333333333333334,0.5000000000000006,0.0,0.0,0.0,0.0,0.0,0.0,0.0,0.0,0.0,1.0,1.0,1000.0,100000000.0,0.3
325,1,0.18666716666666666,0.14666666666666667,0.5000000000000006,0.0,0.0,0.0,0.0,0.0,0.0,0.0,0.0,0.0,1.0,1.0,1000.0,100000000.0,0.3
326,1,0.1833338333333333,0.15333333333333335,0.49999999999999917,0.0,0.0,0.0,0.0,0.0,0.0,0.0,0.0,0.0,1.0,1.0,1000.0,100000000.0,0.3
327,1,0.1833338333333333,0.15666666666666668,0.4999999999999991,0.0,-9.564998366001349e-13,0.0,0.0,-4.0992850140005776e-13,0.0,0.0,0.0,0.0,1.0,1.0,1000.0,100000000.0,0.3
328,1,0.18666716666666666,0.15333333333333335,0.4999999999999991,0.0,0.0,0.0,0.0,0.0,0.0,0.0,0.0,0.0,1.0,1.0,1000.0,100000000.0,0.3
329,1,0.18666716666666666,0.15666666666666668,0.4999999999999991,0.0,-9.564998366001349e-13,0.0,0.0,-4.0992850140005776e-13,0.0,0.0,0.0,0.0,1.0,1.0,1000.0,100000000.0,0.3
330,1,0.1833338333333333,0.16333333333333333,0.4999999999999991,0.0,-4.782499183000674e-13,0.0,0.0,-2.0496425070002888e-13,0.0,0.0,0.0,0.0,1.0,1.0,1000.0,100000000.0,0.3
331,1,0.1833338333333333,0.16666666666666669,0.4999999999999991,0.0,-9.564998366001349e-13,0.0,0.0,-4.0992850140005776e-13,0.0,0.0,0.0,0.0,1.0,1.0,1000.0,100000000.0,0.3
332,1,0.18666716666666666,0.16333333333333333,0.4999999999999991,0.0,-4.782499183000674e-13,0.0,0.0,-2.0496425070002888e-13,0.0,0.0,0.0,0.0,1.0,1.0,1000.0,100000000.0,0.3
333,1,0.18666716666666666,0.16666666666666669,0.4999999999999991,0.0,-9.564998366001349e-13,0.0,0.0,-4.0992850140005776e-13,0.0,0.0,0.0,0.0,1.0,1.0,1000.0,100000000.0,0.3
334,1,0.1833338333333333,0.1733333333333333,0.5000000000000004,0.0,-4.782499183000674e-13,0.0,0.0,-2.0496425070002888e-13,0.0,0.0,0.0,0.0,1.0,1.0,1000.0,100000000.0,0.3
335,1,0.1833338333333333,0.1766666666666667,0.5000000000000004,0.0,-9.564998366001349e-13,0.0,0.0,-4.0992850140005776e-13,0.0,0.0,0.0,0.0,1.0,1.0,1000.0,100000000.0,0.3
336,1,0.18666716666666666,0.1733333333333333,0.5000000000000006,0.0,-4.782499183000674e-13,0.0,0.0,-2.0496425070002888e-13,0.0,0.0,0.0,0.0,1.0,1.0,1000.0,100000000.0,0.3
337,1,0.18666716666666666,0.1766666666666667,0.5000000000000006,0.0,-9.564998366001349e-13,0.0,0.0,-4.0992850140005776e-13,0.0,0.0,0.0,0.0,1.0,1.0,1000.0,100000000.0,0.3
338,1,0.19333383333333332,0.023333333333333334,0.49999999999999967,0.0,0.0,0.0,0.0,0.0,0.0,0.0,0.0,0.0,1.0,1.0,1000.0,100000000.0,0.3
339,1,0.19333383333333332,0.026666666666666665,0.49999999999999967,0.0,0.0,0.0,0.0,0.0,0.0,0.0,0.0,0.0,1.0,1.0,1000.0,100000000.0,0.3
340,1,0.19666716666666667,0.023333333333333334,0.49999999999999967,0.0,0.0,0.0,0.0,0.0,0.0,0.0,0.0,0.0,1.0,1.0,1000.0,100000000.0,0.3
341,1,0.19666716666666667,0.026666666666666665,0.49999999999999967,0.0,0.0,0.0,0.0,0.0,0.0,0.0,0.0,0.0,1.0,1.0,1000.0,100000000.0,0.3
342,1,0.19333383333333332,0.03333333333333333,0.4999999999999995,0.0,0.0,0.0,0.0,0.0,0.0,0.0,0.0,0.0,1.0,1.0,1000.0,100000000.0,0.3
343,1,0.19333383333333332,0.03666666666666667,0.4999999999999995,0.0,0.0,0.0,0.0,0.0,0.0,0.0,0.0,0.0,1.0,1.0,1000.0,100000000.0,0.3
344,1,0.19666716666666667,0.03333333333333333,0.49999999999999956,0.0,0.0,0.0,0.0,0.0,0.0,0.0,0.0,0.0,1.0,1.0,1000.0,100000000.0,0.3
345,1,0.19666716666666667,0.03666666666666667,0.49999999999999956,0.0,0.0,0.0,0.0,0.0,0.0,0.0,0.0,0.0,1.0,1.0,1000.0,100000000.0,0.3
346,1,0.19333383333333332,0.04333333333333333,0.49999999999999944,0.0,4.782499183000674e-13,0.0,0.0,2.0496425070002888e-13,0.0,0.0,0.0,0.0,1.0,1.0,1000.0,100000000.0,0.3
347,1,0.19333383333333332,0.04666666666666667,0.4999999999999995,0.0,0.0,0.0,0.0,0.0,0.0,0.0,0.0,0.0,1.0,1.0,1000.0,100000000.0,0.3
348,1,0.19666716666666667,0.04333333333333333,0.49999999999999944,0.0,4.782499183000674e-13,0.0,0.0,2.0496425070002888e-13,0.0,0.0,0.0,0.0,1.0,1.0,1000.0,100000000.0,0.3
349,1,0.19666716666666667,0.04666666666666667,0.49999999999999956,0.0,0.0,0.0,0.0,0.0,0.0,0.0,0.0,0.0,1.0,1.0,1000.0,100000000.0,0.3
350,1,0.19333383333333332,0.05333333333333333,0.49999999999999983,0.0,0.0,0.0,0.0,0.0,0.0,0.0,0.0,0.0,1.0,1.0,1000.0,100000000.0,0.3
351,1,0.19333383333333332,0.05666666666666667,0.49999999999999983,0.0,0.0,0.0,0.0,0.0,0.0,0.0,0.0,0.0,1.0,1.0,1000.0,100000000.0,0.3
352,1,0.19666716666666667,0.05333333333333333,0.4999999999999999,0.0,0.0,0.0,0.0,0.0,0.0,0.0,0.0,0.0,1.0,1.0,1000.0,100000000.0,0.3
353,1,0.19666716666666667,0.05666666666666667,0.4999999999999999,0.0,0.0,0.0,0.0,0.0,0.0,0.0,0.0,0.0,1.0,1.0,1000.0,100000000.0,0.3
354,1,0.19333383333333332,0.06333333333333332,0.4999999999999991,0.0,-4.782499183000674e-13,0.0,0.0,-2.0496425070002888e-13,0.0,0.0,0.0,0.0,1.0,1.0,1000.0,100000000.0,0.3
355,1,0.19333383333333332,0.06666666666666667,0.4999999999999991,0.0,0.0,0.0,0.0,0.0,0.0,0.0,0.0,0.0,1.0,1.0,1000.0,100000000.0,0.3
356,1,0.19666716666666667,0.06333333333333332,0.4999999999999991,0.0,-4.782499183000674e-13,0.0,0.0,-2.0496425070002888e-13,0.0,0.0,0.0,0.0,1.0,1.0,1000.0,100000000.0,0.3
357,1,0.19666716666666667,0.06666666666666667,0.49999999999999906,0.0,0.0,0.0,0.0,0.0,0.0,0.0,0.0,0.0,1.0,1.0,1000.0,100000000.0,0.3
358,1,0.19333383333333332,0.07333333333333333,0.49999999999999983,0.0,0.0,0.0,0.0,0.0,0.0,0.0,0.0,0.0,1.0,1.0,1000.0,100000000.0,0.3
359,1,0.19333383333333332,0.07666666666666667,0.49999999999999983,0.0,0.0,0.0,0.0,0.0,0.0,0.0,0.0,0.0,1.0,1.0,1000.0,100000000.0,0.3
360,1,0.19666716666666667,0.07333333333333333,0.4999999999999999,0.0,0.0,0.0,0.0,0.0,0.0,0.0,0.0,0.0,1.0,1.0,1000.0,100000000.0,0.3
361,1,0.19666716666666667,0.07666666666666667,0.4999999999999999,0.0,0.0,0.0,0.0,0.0,0.0,0.0,0.0,0.0,1.0,1.0,1000.0,100000000.0,0.3
362,1,0.19333383333333332,0.08333333333333334,0.49999999999999983,0.0,0.0,0.0,0.0,0.0,0.0,0.0,0.0,0.0,1.0,1.0,1000.0,100000000.0,0.3
363,1,0.19333383333333332,0.08666666666666666,0.4999999999999998,0.0,0.0,0.0,0.0,0.0,0.0,0.0,0.0,0.0,1.0,1.0,1000.0,100000000.0,0.3
364,1,0.19666716666666667,0.08333333333333334,0.4999999999999998,0.0,0.0,0.0,0.0,0.0,0.0,0.0,0.0,0.0,1.0,1.0,1000.0,100000000.0,0.3
365,1,0.19666716666666667,0.08666666666666666,0.4999999999999997,0.0,0.0,0.0,0.0,0.0,0.0,0.0,0.0,0.0,1.0,1.0,1000.0,100000000.0,0.3
366,1,0.19333383333333332,0.09333333333333334,0.49999999999999917,0.0,0.0,0.0,0.0,0.0,0.0,0.0,0.0,0.0,1.0,1.0,1000.0,100000000.0,0.3
367,1,0.19333383333333332,0.09666666666666666,0.4999999999999991,0.0,0.0,0.0,0.0,0.0,0.0,0.0,0.0,0.0,1.0,1.0,1000.0,100000000.0,0.3
368,1,0.19666716666666667,0.09333333333333334,0.4999999999999991,0.0,0.0,0.0,0.0,0.0,0.0,0.0,0.0,0.0,1.0,1.0,1000.0,100000000.0,0.3
369,1,0.19666716666666667,0.09666666666666666,0.49999999999999906,0.0,0.0,0.0,0.0,0.0,0.0,0.0,0.0,0.0,1.0,1.0,1000.0,100000000.0,0.3
370,1,0.19333383333333332,0.10333333333333335,0.49999999999999983,0.0,0.0,0.0,0.0,0.0,0.0,0.0,0.0,0.0,1.0,1.0,1000.0,100000000.0,0.3
371,1,0.19333383333333332,0.10666666666666666,0.4999999999999998,0.0,0.0,0.0,0.0,0.0,0.0,0.0,0.0,0.0,1.0,1.0,1000.0,100000000.0,0.3
372,1,0.19666716666666667,0.10333333333333335,0.4999999999999998,0.0,0.0,0.0,0.0,0.0,0.0,0.0,0.0,0.0,1.0,1.0,1000.0,100000000.0,0.3
373,1,0.19666716666666667,0.10666666666666666,0.4999999999999997,0.0,0.0,0.0,0.0,0.0,0.0,0.0,0.0,0.0,1.0,1.0,1000.0,100000000.0,0.3
374,1,0.19333383333333332,0.11333333333333334,0.49999999999999983,0.0,0.0,0.0,0.0,0.0,0.0,0.0,0.0,0.0,1.0,1.0,1000.0,100000000.0,0.3
375,1,0.19333383333333332,0.11666666666666667,0.49999999999999983,0.0,0.0,0.0,0.0,0.0,0.0,0.0,0.0,0.0,1.0,1.0,1000.0,100000000.0,0.3
376,1,0.19666716666666667,0.11333333333333334,0.4999999999999998,0.0,0.0,0.0,0.0,0.0,0.0,0.0,0.0,0.0,1.0,1.0,1000.0,100000000.0,0.3
377,1,0.19666716666666667,0.11666666666666667,0.4999999999999999,0.0,0.0,0.0,0.0,0.0,0.0,0.0,0.0,0.0,1.0,1.0,1000.0,100000000.0,0.3
378,1,0.19333383333333332,0.12333333333333334,0.49999999999999917,0.0,0.0,0.0,0.0,0.0,0.0,0.0,0.0,0.0,1.0,1.0,1000.0,100000000.0,0.3
379,1,0.19333383333333332,0.12666666666666665,0.4999999999999991,0.0,0.0,0.0,0.0,0.0,0.0,0.0,0.0,0.0,1.0,1.0,1000.0,100000000.0,0.3
380,1,0.19666716666666667,0.12333333333333334,0.4999999999999991,0.0,0.0,0.0,0.0,0.0,0.0,0.0,0.0,0.0,1.0,1.0,1000.0,100000000.0,0.3
381,1,0.19666716666666667,0.12666666666666665,0.49999999999999906,0.0,0.0,0.0,0.0,0.0,0.0,0.0,0.0,0.0,1.0,1.0,1000.0,100000000.0,0.3
382,1,0.19333383333333332,0.13333333333333333,0.4999999999999991,0.0,-4.782499183000674e-13,0.0,0.0,-2.0496425070002888e-13,0.0,0.0,0.0,0.0,1.0,1.0,1000.0,100000000.0,0.3
383,1,0.19333383333333332,0.13666666666666666,0.4999999999999991,0.0,0.0,0.0,0.0,0.0,0.0,0.0,0.0,0.0,1.0,1.0,1000.0,100000000.0,0.3
384,1,0.19666716666666667,0.13333333333333333,0.4999999999999991,0.0,-4.782499183000674e-13,0.0,0.0,-2.0496425070002888e-13,0.0,0.0,0.0,0.0,1.0,1.0,1000.0,100000000.0,0.3
385,1,0.19666716666666667,0.13666666666666666,0.49999999999999906,0.0,0.0,0.0,0.0,0.0,0.0,0.0,0.0,0.0,1.0,1.0,1000.0,100000000.0,0.3
386,1,0.19333383333333332,0.14333333333333334,0.5000000000000004,0.0,0.0,0.0,0.0,0.0,0.0,0.0,0.0,0.0,1.0,1.0,1000.0,100000000.0,0.3
387,1,0.19333383333333332,0.14666666666666667,0.5000000000000004,0.0,0.0,0.0,0.0,0.0,0.0,0.0,0.0,0.0,1.0,1.0,1000.0,100000000.0,0.3
388,1,0.19666716666666667,0.14333333333333334,0.5000000000000006,0.0,0.0,0.0,0.0,0.0,0.0,0.0,0.0,0.0,1.0,1.0,1000.0,100000000.0,0.3
389,1,0.19666716666666667,0.14666666666666667,0.5000000000000006,0.0,0.0,0.0,0.0,0.0,0.0,0.0,0.0,0.0,1.0,1.0,1000.0,100000000.0,0.3
390,1,0.19333383333333332,0.15333333333333335,0.49999999999999917,0.0,0.0,0.0,0.0,0.0,0.0,0.0,0.0,0.0,1.0,1.0,1000.0,100000000.0,0.3
391,1,0.19333383333333332,0.15666666666666668,0.4999999999999991,0.0,-9.564998366001349e-13,0.0,0.0,-4.0992850140005776e-13,0.0,0.0,0.0,0.0,1.0,1.0,1000.0,100000000.0,0.3
392,1,0.19666716666666667,0.15333333333333335,0.4999999999999991,0.0,0.0,0.0,0.0,0.0,0.0,0.0,0.0,0.0,1.0,1.0,1000.0,100000000.0,0.3
393,1,0.19666716666666667,0.15666666666666668,0.4999999999999991,0.0,-9.564998366001349e-13,0.0,0.0,-4.0992850140005776e-13,0.0,0.0,0.0,0.0,1.0,1.0,1000.0,100000000.0,0.3
394,1,0.19333383333333332,0.16333333333333333,0.4999999999999991,0.0,-4.782499183000674e-13,0.0,0.0,-2.0496425070002888e-13,0.0,0.0,0.0,0.0,1.0,1.0,1000.0,100000000.0,0.3
395,1,0.19333383333333332,0.16666666666666669,0.4999999999999991,0.0,-9.564998366001349e-13,0.0,0.0,-4.0992850140005776e-13,0.0,0.0,0.0,0.0,1.0,1.0,1000.0,100000000.0,0.3
396,1,0.19666716666666667,0.16333333333333333,0.4999999999999991,0.0,-4.782499183000674e-13,0.0,0.0,-2.0496425070002888e-13,0.0,0.0,0.0,0.0,1.0,1.0,1000.0,100000000.0,0.3
397,1,0.19666716666666667,0.16666666666666669,0.4999999999999991,0.0,-9.564998366001349e-13,0.0,0.0,-4.0992850140005776e-13,0.0,0.0,0.0,0.0,1.0,1.0,1000.0,100000000.0,0.3
398,1,0.19333383333333332,0.1733333333333333,0.5000000000000004,0.0,-4.782499183000674e-13,0.0,0.0,-2.0496425070002888e-13,0.0,0.0,0.0,0.0,1.0,1.0,1000.0,100000000.0,0.3
399,1,0.19333383333333332,0.1766666666666667,0.5000000000000004,0.0,-9.564998366001349e-13,0.0,0.0,-4.0992850140005776e-13,0.0,0.0,0.0,0.0,1.0,1.0,1000.0,100000000.0,0.3
400,1,0.19666716666666667,0.1733333333333333,0.5000000000000006,0.0,-4.782499183000674e-13,0.0,0.0,-2.0496425070002888e-13,0.0,0.0,0.0,0.0,1.0,1.0,1000.0,100000000.0,0.3
401,1,0.19666716666666667,0.1766666666666667,0.5000000000000006,0.0,-9.564998366001349e-13,0.0,0.0,-4.0992850140005776e-13,0.0,0.0,0.0,0.0,1.0,1.0,1000.0,100000000.0,0.3
402,1,0.20333383333333332,0.023333333333333334,0.500000000000001,0.0,0.0,0.0,0.0,0.0,0.0,0.0,0.0,0.0,1.0,1.0,1000.0,100000000.0,0.3
403,1,0.20333383333333332,0.026666666666666665,0.500000000000001,0.0,0.0,0.0,0.0,0.0,0.0,0.0,0.0,0.0,1.0,1.0,1000.0,100000000.0,0.3
404,1,0.20666716666666668,0.023333333333333334,0.5000000000000011,0.0,0.0,0.0,0.0,0.0,0.0,0.0,0.0,0.0,1.0,1.0,1000.0,100000000.0,0.3
405,1,0.20666716666666668,0.026666666666666665,0.5000000000000011,0.0,0.0,0.0,0.0,0.0,0.0,0.0,0.0,0.0,1.0,1.0,1000.0,100000000.0,0.3
406,1,0.20333383333333332,0.03333333333333333,0.5000000000000009,0.0,0.0,0.0,0.0,0.0,0.0,0.0,0.0,0.0,1.0,1.0,1000.0,100000000.0,0.3
407,1,0.20333383333333332,0.03666666666666667,0.5000000000000009,0.0,0.0,0.0,0.0,0.0,0.0,0.0,0.0,0.0,1.0,1.0,1000.0,100000000.0,0.3
408,1,0.20666716666666668,0.03333333333333333,0.5000000000000009,0.0,0.0,0.0,0.0,0.0,0.0,0.0,0.0,0.0,1.0,1.0,1000.0,100000000.0,0.3
409,1,0.20666716666666668,0.03666666666666667,0.5000000000000009,0.0,0.0,0.0,0.0,0.0,0.0,0.0,0.0,0.0,1.0,1.0,1000.0,100000000.0,0.3
410,1,0.20333383333333332,0.04333333333333333,0.5000000000000008,0.0,4.782499183000674e-13,0.0,0.0,2.0496425070002888e-13,0.0,0.0,0.0,0.0,1.0,1.0,1000.0,100000000.0,0.3
411,1,0.20333383333333332,0.04666666666666667,0.5000000000000009,0.0,0.0,0.0,0.0,0.0,0.0,0.0,0.0,0.0,1.0,1.0,1000.0,100000000.0,0.3
412,1,0.20666716666666668,0.04333333333333333,0.5000000000000009,0.0,4.782499183000674e-13,0.0,0.0,2.0496425070002888e-13,0.0,0.0,0.0,0.0,1.0,1.0,1000.0,100000000.0,0.3
413,1,0.20666716666666668,0.04666666666666667,0.5000000000000009,0.0,0.0,0.0,0.0,0.0,0.0,0.0,0.0,0.0,1.0,1.0,1000.0,100000000.0,0.3
414,1,0.20333383333333332,0.05333333333333333,0.5000000000000012,0.0,0.0,0.0,0.0,0.0,0.0,0.0,0.0,0.0,1.0,1.0,1000.0,100000000.0,0.3
415,1,0.20333383333333332,0.05666666666666667,0.5000000000000012,0.0,0.0,0.0,0.0,0.0,0.0,0.0,0.0,0.0,1.0,1.0,1000.0,100000000.0,0.3
416,1,0.20666716666666668,0.05333333333333333,0.5000000000000013,0.0,0.0,0.0,0.0,0.0,0.0,0.0,0.0,0.0,1.0,1.0,1000.0,100000000.0,0.3
417,1,0.20666716666666668,0.05666666666666667,0.5000000000000012,0.0,0.0,0.0,0.0,0.0,0.0,0.0,0.0,0.0,1.0,1.0,1000.0,100000000.0,0.3
418,1,0.20333383333333332,0.06333333333333332,0.5000000000000004,0.0,-4.782499183000674e-13,0.0,0.0,-2.0496425070002888e-13,0.0,0.0,0.0,0.0,1.0,1.0,1000.0,100000000.0,0.3
419,1,0.20333383333333332,0.06666666666666667,0.5000000000000006,0.0,0.0,0.0,0.0,0.0,0.0,0.0,0.0,0.0,1.0,1.0,1000.0,100000000.0,0.3
420,1,0.20666716666666668,0.06333333333333332,0.5000000000000006,0.0,-4.782499183000674e-13,0.0,0.0,-2.0496425070002888e-13,0.0,0.0,0.0,0.0,1.0,1.0,1000.0,100000000.0,0.3
421,1,0.20666716666666668,0.06666666666666667,0.5000000000000004,0.0,0.0,0.0,0.0,0.0,0.0,0.0,0.0,0.0,1.0,1.0,1000.0,100000000.0,0.3
422,1,0.20333383333333332,0.07333333333333333,0.5000000000000012,0.0,0.0,0.0,0.0,0.0,0.0,0.0,0.0,0.0,1.0,1.0,1000.0,100000000.0,0.3
423,1,0.20333383333333332,0.07666666666666667,0.5000000000000012,0.0,0.0,0.0,0.0,0.0,0.0,0.0,0.0,0.0,1.0,1.0,1000.0,100000000.0,0.3
424,1,0.20666716666666668,0.07333333333333333,0.5000000000000013,0.0,0.0,0.0,0.0,0.0,0.0,0.0,0.0,0.0,1.0,1.0,1000.0,100000000.0,0.3
425,1,0.20666716666666668,0.07666666666666667,0.5000000000000012,0.0,0.0,0.0,0.0,0.0,0.0,0.0,0.0,0.0,1.0,1.0,1000.0,100000000.0,0.3
426,1,0.20333383333333332,0.08333333333333334,0.5000000000000012,0.0,0.0,0.0,0.0,0.0,0.0,0.0,0.0,0.0,1.0,1.0,1000.0,100000000.0,0.3
427,1,0.20333383333333332,0.08666666666666666,0.5000000000000012,0.0,0.0,0.0,0.0,0.0,0.0,0.0,0.0,0.0,1.0,1.0,1000.0,100000000.0,0.3
428,1,0.20666716666666668,0.08333333333333334,0.5000000000000011,0.0,0.0,0.0,0.0,0.0,0.0,0.0,0.0,0.0,1.0,1.0,1000.0,100000000.0,0.3
429,1,0.20666716666666668,0.08666666666666666,0.5000000000000011,0.0,0.0,0.0,0.0,0.0,0.0,0.0,0.0,0.0,1.0,1.0,1000.0,100000000.0,0.3
430,1,0.20333383333333332,0.09333333333333334,0.5000000000000006,0.0,0.0,0.0,0.0,0.0,0.0,0.0,0.0,0.0,1.0,1.0,1000.0,100000000.0,0.3
431,1,0.20333383333333332,0.09666666666666666,0.5000000000000006,0.0,0.0,0.0,0.0,0.0,0.0,0.0,0.0,0.0,1.0,1.0,1000.0,100000000.0,0.3
432,1,0.20666716666666668,0.09333333333333334,0.5000000000000004,0.0,0.0,0.0,0.0,0.0,0.0,0.0,0.0,0.0,1.0,1.0,1000.0,100000000.0,0.3
433,1,0.20666716666666668,0.09666666666666666,0.5000000000000004,0.0,0.0,0.0,0.0,0.0,0.0,0.0,0.0,0.0,1.0,1.0,1000.0,100000000.0,0.3
434,1,0.20333383333333332,0.10333333333333335,0.5000000000000012,0.0,0.0,0.0,0.0,0.0,0.0,0.0,0.0,0.0,1.0,1.0,1000.0,100000000.0,0.3
435,1,0.20333383333333332,0.10666666666666666,0.5000000000000012,0.0,0.0,0.0,0.0,0.0,0.0,0.0,0.0,0.0,1.0,1.0,1000.0,100000000.0,0.3
436,1,0.20666716666666668,0.10333333333333335,0.5000000000000011,0.0,0.0,0.0,0.0,0.0,0.0,0.0,0.0,0.0,1.0,1.0,1000.0,100000000.0,0.3
437,1,0.20666716666666668,0.10666666666666666,0.5000000000000011,0.0,0.0,0.0,0.0,0.0,0.0,0.0,0.0,0.0,1.0,1.0,1000.0,100000000.0,0.3
438,1,0.20333383333333332,0.11333333333333334,0.5000000000000012,0.0,0.0,0.0,0.0,0.0,0.0,0.0,0.0,0.0,1.0,1.0,1000.0,100000000.0,0.3
439,1,0.20333383333333332,0.11666666666666667,0.5000000000000012,0.0,0.0,0.0,0.0,0.0,0.0,0.0,0.0,0.0,1.0,1.0,1000.0,100000000.0,0.3
440,1,0.20666716666666668,0.11333333333333334,0.5000000000000011,0.0,0.0,0.0,0.0,0.0,0.0,0.0,0.0,0.0,1.0,1.0,1000.0,100000000.0,0.3
441,1,0.20666716666666668,0.11666666666666667,0.5000000000000012,0.0,0.0,0.0,0.0,0.0,0.0,0.0,0.0,0.0,1.0,1.0,1000.0,100000000.0,0.3
442,1,0.20333383333333332,0.12333333333333334,0.5000000000000006,0.0,0.0,0.0,0.0,0.0,0.0,0.0,0.0,0.0,1.0,1.0,1000.0,100000000.0,0.3
443,1,0.20333383333333332,0.12666666666666665,0.5000000000000006,0.0,0.0,0.0,0.0,0.0,0.0,0.0,0.0,0.0,1.0,1.0,1000.0,100000000.0,0.3
444,1,0.20666716666666668,0.12333333333333334,0.5000000000000004,0.0,0.0,0.0,0.0,0.0,0.0,0.0,0.0,0.0,1.0,1.0,1000.0,100000000.0,0.3
445,1,0.20666716666666668,0.12666666666666665,0.5000000000000004,0.0,0.0,0.0,0.0,0.0,0.0,0.0,0.0,0.0,1.0,1.0,1000.0,100000000.0,0.3
446,1,0.20333383333333332,0.13333333333333333,0.5000000000000004,0.0,-4.782499183000674e-13,0.0,0.0,-2.0496425070002888e-13,0.0,0.0,0.0,0.0,1.0,1.0,1000.0,100000000.0,0.3
447,1,0.20333383333333332,0.13666666666666666,0.5000000000000006,0.0,0.0,0.0,0.0,0.0,0.0,0.0,0.0,0.0,1.0,1.0,1000.0,100000000.0,0.3
448,1,0.20666716666666668,0.13333333333333333,0.5000000000000006,0.0,-4.782499183000674e-13,0.0,0.0,-2.0496425070002888e-13,0.0,0.0,0.0,0.0,1.0,1.0,1000.0,100000000.0,0.3
449,1,0.20666716666666668,0.13666666666666666,0.5000000000000004,0.0,0.0,0.0,0.0,0.0,0.0,0.0,0.0,0.0,1.0,1.0,1000.0,100000000.0,0.3
450,1,0.20333383333333332,0.14333333333333334,0.5000000000000019,0.0,0.0,0.0,0.0,0.0,0.0,0.0,0.0,0.0,1.0,1.0,1000.0,100000000.0,0.3
451,1,0.20333383333333332,0.14666666666666667,0.5000000000000019,0.0,0.0,0.0,0.0,0.0,0.0,0.0,0.0,0.0,1.0,1.0,1000.0,100000000.0,0.3
452,1,0.20666716666666668,0.14333333333333334,0.500000000000002,0.0,0.0,0.0,0.0,0.0,0.0,0.0,0.0,0.0,1.0,1.0,1000.0,100000000.0,0.3
453,1,0.20666716666666668,0.14666666666666667,0.5000000000000019,0.0,0.0,0.0,0.0,0.0,0.0,0.0,0.0,0.0,1.0,1.0,1000.0,100000000.0,0.3
454,1,0.20333383333333332,0.15333333333333335,0.5000000000000006,0.0,0.0,0.0,0.0,0.0,0.0,0.0,0.0,0.0,1.0,1.0,1000.0,100000000.0,0.3
455,1,0.20333383333333332,0.15666666666666668,0.5000000000000006,0.0,-9.564998366001349e-13,0.0,0.0,-4.0992850140005776e-13,0.0,0.0,0.0,0.0,1.0,1.0,1000.0,100000000.0,0.3
456,1,0.20666716666666668,0.15333333333333335,0.5000000000000004,0.0,0.0,0.0,0.0,0.0,0.0,0.0,0.0,0.0,1.0,1.0,1000.0,100000000.0,0.3
457,1,0.20666716666666668,0.15666666666666668,0.5000000000000006,0.0,-9.564998366001349e-13,0.0,0.0,-4.0992850140005776e-13,0.0,0.0,0.0,0.0,1.0,1.0,1000.0,100000000.0,0.3
458,1,0.20333383333333332,0.16333333333333333,0.5000000000000004,0.0,-4.782499183000674e-13,0.0,0.0,-2.0496425070002888e-13,0.0,0.0,0.0,0.0,1.0,1.0,1000.0,100000000.0,0.3
459,1,0.20333383333333332,0.16666666666666669,0.5000000000000006,0.0,-9.564998366001349e-13,0.0,0.0,-4.0992850140005776e-13,0.0,0.0,0.0,0.0,1.0,1.0,1000.0,100000000.0,0.3
460,1,0.20666716666666668,0.16333333333333333,0.5000000000000006,0.0,-4.782499183000674e-13,0.0,0.0,-2.0496425070002888e-13,0.0,0.0,0.0,0.0,1.0,1.0,1000.0,100000000.0,0.3
461,1,0.20666716666666668,0.16666666666666669,0.5000000000000006,0.0,-9.564998366001349e-13,0.0,0.0,-4.0992850140005776e-13,0.0,0.0,0.0,0.0,1.0,1.0,1000.0,100000000.0,0.3
462,1,0.20333383333333332,0.1733333333333333,0.5000000000000019,0.0,-4.782499183000674e-13,0.0,0.0,-2.0496425070002888e-13,0.0,0.0,0.0,0.0,1.0,1.0,1000.0,100000000.0,0.3
463,1,0.20333383333333332,0.1766666666666667,0.5000000000000019,0.0,-9.564998366001349e-13,0.0,0.0,-4.0992850140005776e-13,0.0,0.0,0.0,0.0,1.0,1.0,1000.0,100000000.0,0.3
464,1,0.20666716666666668,0.1733333333333333,0.5000000000000019,0.0,-4.782499183000674e-13,0.0,0.0,-2.0496425070002888e-13,0.0,0.0,0.0,0.0,1.0,1.0,1000.0,100000000.0,0.3
465,1,0.20666716666666668,0.1766666666666667,0.5000000000000019,0.0,-9.564998366001349e-13,0.0,0.0,-4.0992850140005776e-13,0.0,0.0,0.0,0.0,1.0,1.0,1000.0,100000000.0,0.3
466,1,0.2133338333333333,0.023333333333333334,0.49999999999999967,0.0,0.0,0.0,0.0,0.0,0.0,0.0,0.0,0.0,1.0,1.0,1000.0,100000000.0,0.3
467,1,0.2133338333333333,0.026666666666666665,0.49999999999999967,0.0,0.0,0.0,0.0,0.0,0.0,0.0,0.0,0.0,1.0,1.0,1000.0,100000000.0,0.3
468,1,0.21666716666666666,0.023333333333333334,0.49999999999999967,0.0,0.0,0.0,0.0,0.0,0.0,0.0,0.0,0.0,1.0,1.0,1000.0,100000000.0,0.3
469,1,0.21666716666666666,0.026666666666666665,0.49999999999999967,0.0,0.0,0.0,0.0,0.0,0.0,0.0,0.0,0.0,1.0,1.0,1000.0,100000000.0,0.3
470,1,0.2133338333333333,0.03333333333333333,0.4999999999999995,0.0,0.0,0.0,0.0,0.0,0.0,0.0,0.0,0.0,1.0,1.0,1000.0,100000000.0,0.3
471,1,0.2133338333333333,0.03666666666666667,0.4999999999999995,0.0,0.0,0.0,0.0,0.0,0.0,0.0,0.0,0.0,1.0,1.0,1000.0,100000000.0,0.3
472,1,0.21666716666666666,0.03333333333333333,0.49999999999999956,0.0,0.0,0.0,0.0,0.0,0.0,0.0,0.0,0.0,1.0,1.0,1000.0,100000000.0,0.3
473,1,0.21666716666666666,0.03666666666666667,0.49999999999999956,0.0,0.0,0.0,0.0,0.0,0.0,0.0,0.0,0.0,1.0,1.0,1000.0,100000000.0,0.3
474,1,0.2133338333333333,0.04333333333333333,0.49999999999999944,0.0,4.782499183000674e-13,0.0,0.0,2.0496425070002888e-13,0.0,0.0,0.0,0.0,1.0,1.0,1000.0,100000000.0,0.3
475,1,0.2133338333333333,0.04666666666666667,0.4999999999999995,0.0,0.0,0.0,0.0,0.0,0.0,0.0,0.0,0.0,1.0,1.0,1000.0,100000000.0,0.3
476,1,0.21666716666666666,0.04333333333333333,0.49999999999999944,0.0,4.782499183000674e-13,0.0,0.0,2.0496425070002888e-13,0.0,0.0,0.0,0.0,1.0,1.0,1000.0,100000000.0,0.3
477,1,0.21666716666666666,0.04666666666666667,0.49999999999999956,0.0,0.0,0.0,0.0,0.0,0.0,0.0,0.0,0.0,1.0,1.0,1000.0,100000000.0,0.3
478,1,0.2133338333333333,0.05333333333333333,0.49999999999999983,0.0,0.0,0.0,0.0,0.0,0.0,0.0,0.0,0.0,1.0,1.0,1000.0,100000000.0,0.3
479,1,0.2133338333333333,0.05666666666666667,0.49999999999999983,0.0,0.0,0.0,0.0,0.0,0.0,0.0,0.0,0.0,1.0,1.0,1000.0,100000000.0,0.3
480,1,0.21666716666666666,0.05333333333333333,0.4999999999999999,0.0,0.0,0.0,0.0,0.0,0.0,0.0,0.0,0.0,1.0,1.0,1000.0,100000000.0,0.3
481,1,0.21666716666666666,0.05666666666666667,0.4999999999999999,0.0,0.0,0.0,0.0,0.0,0.0,0.0,0.0,0.0,1.0,1.0,1000.0,100000000.0,0.3
482,1,0.2133338333333333,0.06333333333333332,0.4999999999999991,0.0,-4.782499183000674e-13,0.0,0.0,-2.0496425070002888e-13,0.0,0.0,0.0,0.0,1.0,1.0,1000.0,100000000.0,0.3
483,1,0.2133338333333333,0.06666666666666667,0.4999999999999991,0.0,0.0,0.0,0.0,0.0,0.0,0.0,0.0,0.0,1.0,1.0,1000.0,100000000.0,0.3
484,1,0.21666716666666666,0.06333333333333332,0.4999999999999991,0.0,-4.782499183000674e-13,0.0,0.0,-2.0496425070002888e-13,0.0,0.0,0.0,0.0,1.0,1.0,1000.0,100000000.0,0.3
485,1,0.21666716666666666,0.06666666666666667,0.49999999999999906,0.0,0.0,0.0,0.0,0.0,0.0,0.0,0.0,0.0,1.0,1.0,1000.0,100000000.0,0.3
486,1,0.2133338333333333,0.07333333333333333,0.49999999999999983,0.0,0.0,0.0,0.0,0.0,0.0,0.0,0.0,0.0,1.0,1.0,1000.0,100000000.0,0.3
487,1,0.2133338333333333,0.07666666666666667,0.49999999999999983,0.0,0.0,0.0,0.0,0.0,0.0,0.0,0.0,0.0,1.0,1.0,1000.0,100000000.0,0.3
488,1,0.21666716666666666,0.07333333333333333,0.4999999999999999,0.0,0.0,0.0,0.0,0.0,0.0,0.0,0.0,0.0,1.0,1.0,1000.0,100000000.0,0.3
489,1,0.21666716666666666,0.07666666666666667,0.4999999999999999,0.0,0.0,0.0,0.0,0.0,0.0,0.0,0.0,0.0,1.0,1.0,1000.0,100000000.0,0.3
490,1,0.2133338333333333,0.08333333333333334,0.49999999999999983,0.0,0.0,0.0,0.0,0.0,0.0,0.0,0.0,0.0,1.0,1.0,1000.0,100000000.0,0.3
491,1,0.2133338333333333,0.08666666666666666,0.4999999999999998,0.0,0.0,0.0,0.0,0.0,0.0,0.0,0.0,0.0,1.0,1.0,1000.0,100000000.0,0.3
492,1,0.21666716666666666,0.08333333333333334,0.4999999999999998,0.0,0.0,0.0,0.0,0.0,0.0,0.0,0.0,0.0,1.0,1.0,1000.0,100000000.0,0.3
493,1,0.21666716666666666,0.08666666666666666,0.4999999999999997,0.0,0.0,0.0,0.0,0.0,0.0,0.0,0.0,0.0,1.0,1.0,1000.0,100000000.0,0.3
494,1,0.2133338333333333,0.09333333333333334,0.49999999999999917,0.0,0.0,0.0,0.0,0.0,0.0,0.0,0.0,0.0,1.0,1.0,1000.0,100000000.0,0.3
495,1,0.2133338333333333,0.09666666666666666,0.4999999999999991,0.0,0.0,0.0,0.0,0.0,0.0,0.0,0.0,0.0,1.0,1.0,1000.0,100000000.0,0.3
496,1,0.21666716666666666,0.09333333333333334,0.4999999999999991,0.0,0.0,0.0,0.0,0.0,0.0,0.0,0.0,0.0,1.0,1.0,1000.0,100000000.0,0.3
497,1,0.21666716666666666,0.09666666666666666,0.49999999999999906,0.0,0.0,0.0,0.0,0.0,0.0,0.0,0.0,0.0,1.0,1.0,1000.0,100000000.0,0.3
498,1,0.2133338333333333,0.10333333333333335,0.49999999999999983,0.0,0.0,0.0,0.0,0.0,0.0,0.0,0.0,0.0,1.0,1.0,1000.0,100000000.0,0.3
499,1,0.2133338333333333,0.10666666666666666,0.4999999999999998,0.0,0.0,0.0,0.0,0.0,0.0,0.0,0.0,0.0,1.0,1.0,1000.0,100000000.0,0.3
500,1,0.21666716666666666,0.10333333333333335,0.4999999999999998,0.0,0.0,0.0,0.0,0.0,0.0,0.0,0.0,0.0,1.0,1.0,1000.0,100000000.0,0.3
501,1,0.21666716666666666,0.10666666666666666,0.4999999999999997,0.0,0.0,0.0,0.0,0.0,0.0,0.0,0.0,0.0,1.0,1.0,1000.0,100000000.0,0.3
502,1,0.2133338333333333,0.11333333333333334,0.49999999999999983,0.0,0.0,0.0,0.0,0.0,0.0,0.0,0.0,0.0,1.0,1.0,1000.0,100000000.0,0.3
503,1,0.2133338333333333,0.11666666666666667,0.49999999999999983,0.0,0.0,0.0,0.0,0.0,0.0,0.0,0.0,0.0,1.0,1.0,1000.0,100000000.0,0.3
504,1,0.21666716666666666,0.11333333333333334,0.4999999999999998,0.0,0.0,0.0,0.0,0.0,0.0,0.0,0.0,0.0,1.0,1.0,1000.0,100000000.0,0.3
505,1,0.21666716666666666,0.11666666666666667,0.4999999999999999,0.0,0.0,0.0,0.0,0.0,0.0,0.0,0.0,0.0,1.0,1.0,1000.0,100000000.0,0.3
506,1,0.2133338333333333,0.12333333333333334,0.49999999999999917,0.0,0.0,0.0,0.0,0.0,0.0,0.0,0.0,0.0,1.0,1.0,1000.0,100000000.0,0.3
507,1,0.2133338333333333,0.12666666666666665,0.4999999999999991,0.0,0.0,0.0,0.0,0.0,0.0,0.0,0.0,0.0,1.0,1.0,1000.0,100000000.0,0.3
508,1,0.21666716666666666,0.12333333333333334,0.4999999999999991,0.0,0.0,0.0,0.0,0.0,0.0,0.0,0.0,0.0,1.0,1.0,1000.0,100000000.0,0.3
509,1,0.21666716666666666,0.12666666666666665,0.49999999999999906,0.0,0.0,0.0,0.0,0.0,0.0,0.0,0.0,0.0,1.0,1.0,1000.0,100000000.0,0.3
510,1,0.2133338333333333,0.13333333333333333,0.4999999999999991,0.0,-4.782499183000674e-13,0.0,0.0,-2.0496425070002888e-13,0.0,0.0,0.0,0.0,1.0,1.0,1000.0,100000000.0,0.3
511,1,0.2133338333333333,0.13666666666666666,0.4999999999999991,0.0,0.0,0.0,0.0,0.0,0.0,0.0,0.0,0.0,1.0,1.0,1000.0,100000000.0,0.3
512,1,0.21666716666666666,0.13333333333333333,0.4999999999999991,0.0,-4.782499183000674e-13,0.0,0.0,-2.0496425070002888e-13,0.0,0.0,0.0,0.0,1.0,1.0,1000.0,100000000.0,0.3
513,1,0.21666716666666666,0.13666666666666666,0.49999999999999906,0.0,0.0,0.0,0.0,0.0,0.0,0.0,0.0,0.0,1.0,1.0,1000.0,100000000.0,0.3
514,1,0.2133338333333333,0.14333333333333334,0.5000000000000004,0.0,0.0,0.0,0.0,0.0,0.0,0.0,0.0,0.0,1.0,1.0,1000.0,100000000.0,0.3
515,1,0.2133338333333333,0.14666666666666667,0.5000000000000004,0.0,0.0,0.0,0.0,0.0,0.0,0.0,0.0,0.0,1.0,1.0,1000.0,100000000.0,0.3
516,1,0.21666716666666666,0.14333333333333334,0.5000000000000006,0.0,0.0,0.0,0.0,0.0,0.0,0.0,0.0,0.0,1.0,1.0,1000.0,100000000.0,0.3
517,1,0.21666716666666666,0.14666666666666667,0.5000000000000006,0.0,0.0,0.0,0.0,0.0,0.0,0.0,0.0,0.0,1.0,1.0,1000.0,100000000.0,0.3
518,1,0.2133338333333333,0.15333333333333335,0.49999999999999917,0.0,0.0,0.0,0.0,0.0,0.0,0.0,0.0,0.0,1.0,1.0,1000.0,100000000.0,0.3
519,1,0.2133338333333333,0.15666666666666668,0.4999999999999991,0.0,-9.564998366001349e-13,0.0,0.0,-4.0992850140005776e-13,0.0,0.0,0.0,0.0,1.0,1.0,1000.0,100000000.0,0.3
520,1,0.21666716666666666,0.15333333333333335,0.4999999999999991,0.0,0.0,0.0,0.0,0.0,0.0,0.0,0.0,0.0,1.0,1.0,1000.0,100000000.0,0.3
521,1,0.21666716666666666,0.15666666666666668,0.4999999999999991,0.0,-9.564998366001349e-13,0.0,0.0,-4.0992850140005776e-13,0.0,0.0,0.0,0.0,1.0,1.0,1000.0,100000000.0,0.3
522,1,0.2133338333333333,0.16333333333333333,0.4999999999999991,0.0,-4.782499183000674e-13,0.0,0.0,-2.0496425070002888e-13,0.0,0.0,0.0,0.0,1.0,1.0,1000.0,100000000.0,0.3
523,1,0.2133338333333333,0.16666666666666669,0.4999999999999991,0.0,-9.564998366001349e-13,0.0,0.0,-4.0992850140005776e-13,0.0,0.0,0.0,0.0,1.0,1.0,1000.0,100000000.0,0.3
524,1,0.21666716666666666,0.16333333333333333,0.4999999999999991,0.0,-4.782499183000674e-13,0.0,0.0,-2.0496425070002888e-13,0.0,0.0,0.0,0.0,1.0,1.0,1000.0,100000000.0,0.3
525,1,0.21666716666666666,0.16666666666666669,0.4999999999999991,0.0,-9.564998366001349e-13,0.0,0.0,-4.0992850140005776e-13,0.0,0.0,0.0,0.0,1.0,1.0,1000.0,100000000.0,0.3
526,1,0.2133338333333333,0.1733333333333333,0.5000000000000004,0.0,-4.782499183000674e-13,0.0,0.0,-2.0496425070002888e-13,0.0,0.0,0.0,0.0,1.0,1.0,1000.0,100000000.0,0.3
527,1,0.2133338333333333,0.1766666666666667,0.5000000000000004,0.0,-9.564998366001349e-13,0.0,0.0,-4.0992850140005776e-13,0.0,0.0,0.0,0.0,1.0,1.0,1000.0,100000000.0,0.3
528,1,0.21666716666666666,0.1733333333333333,0.5000000000000006,0.0,-4.782499183000674e-13,0.0,0.0,-2.0496425070002888e-13,0.0,0.0,0.0,0.0,1.0,1.0,1000.0,100000000.0,0.3
529,1,0.21666716666666666,0.1766666666666667,0.5000000000000006,0.0,-9.564998366001349e-13,0.0,0.0,-4.0992850140005776e-13,0.0,0.0,0.0,0.0,1.0,1.0,1000.0,100000000.0,0.3
530,1,0.22333383333333331,0.026666666666666665,0.49999999999999967,0.0,0.0,0.0,0.0,0.0,0.0,0.0,0.0,0.0,1.0,1.0,1000.0,100000000.0,0.3
531,1,0.22666716666666667,0.026666666666666665,0.49999999999999967,0.0,0.0,0.0,0.0,0.0,0.0,0.0,0.0,0.0,1.0,1.0,1000.0,100000000.0,0.3
532,1,0.22333383333333331,0.03333333333333333,0.4999999999999995,0.0,0.0,0.0,0.0,0.0,0.0,0.0,0.0,0.0,1.0,1.0,1000.0,100000000.0,0.3
533,1,0.22333383333333331,0.03666666666666667,0.4999999999999995,0.0,0.0,0.0,0.0,0.0,0.0,0.0,0.0,0.0,1.0,1.0,1000.0,100000000.0,0.3
534,1,0.22666716666666667,0.03333333333333333,0.49999999999999956,0.0,0.0,0.0,0.0,0.0,0.0,0.0,0.0,0.0,1.0,1.0,1000.0,100000000.0,0.3
535,1,0.22666716666666667,0.03666666666666667,0.49999999999999956,0.0,0.0,0.0,0.0,0.0,0.0,0.0,0.0,0.0,1.0,1.0,1000.0,100000000.0,0.3
536,1,0.22333383333333331,0.04333333333333333,0.49999999999999944,0.0,4.782499183000674e-13,0.0,0.0,2.0496425070002888e-13,0.0,0.0,0.0,0.0,1.0,1.0,1000.0,100000000.0,0.3
537,1,0.22333383333333331,0.04666666666666667,0.4999999999999995,0.0,0.0,0.0,0.0,0.0,0.0,0.0,0.0,0.0,1.0,1.0,1000.0,100000000.0,0.3
538,1,0.22666716666666667,0.04333333333333333,0.49999999999999944,0.0,4.782499183000674e-13,0.0,0.0,2.0496425070002888e-13,0.0,0.0,0.0,0.0,1.0,1.0,1000.0,100000000.0,0.3
539,1,0.22666716666666667,0.04666666666666667,0.49999999999999956,0.0,0.0,0.0,0.0,0.0,0.0,0.0,0.0,0.0,1.0,1.0,1000.0,100000000.0,0.3
540,1,0.22333383333333331,0.05333333333333333,0.49999999999999983,0.0,0.0,0.0,0.0,0.0,0.0,0.0,0.0,0.0,1.0,1.0,1000.0,100000000.0,0.3
541,1,0.22333383333333331,0.05666666666666667,0.49999999999999983,0.0,0.0,0.0,0.0,0.0,0.0,0.0,0.0,0.0,1.0,1.0,1000.0,100000000.0,0.3
542,1,0.22666716666666667,0.05333333333333333,0.4999999999999999,0.0,0.0,0.0,0.0,0.0,0.0,0.0,0.0,0.0,1.0,1.0,1000.0,100000000.0,0.3
543,1,0.22666716666666667,0.05666666666666667,0.4999999999999999,0.0,0.0,0.0,0.0,0.0,0.0,0.0,0.0,0.0,1.0,1.0,1000.0,100000000.0,0.3
544,1,0.22333383333333331,0.06333333333333332,0.4999999999999991,0.0,-4.782499183000674e-13,0.0,0.0,-2.0496425070002888e-13,0.0,0.0,0.0,0.0,1.0,1.0,1000.0,100000000.0,0.3
545,1,0.22333383333333331,0.06666666666666667,0.4999999999999991,0.0,0.0,0.0,0.0,0.0,0.0,0.0,0.0,0.0,1.0,1.0,1000.0,100000000.0,0.3
546,1,0.22666716666666667,0.06333333333333332,0.4999999999999991,0.0,-4.782499183000674e-13,0.0,0.0,-2.0496425070002888e-13,0.0,0.0,0.0,0.0,1.0,1.0,1000.0,100000000.0,0.3
547,1,0.22666716666666667,0.06666666666666667,0.49999999999999906,0.0,0.0,0.0,0.0,0.0,0.0,0.0,0.0,0.0,1.0,1.0,1000.0,100000000.0,0.3
548,1,0.22333383333333331,0.07333333333333333,0.49999999999999983,0.0,0.0,0.0,0.0,0.0,0.0,0.0,0.0,0.0,1.0,1.0,1000.0,100000000.0,0.3
549,1,0.22333383333333331,0.07666666666666667,0.49999999999999983,0.0,0.0,0.0,0.0,0.0,0.0,0.0,0.0,0.0,1.0,1.0,1000.0,100000000.0,0.3
550,1,0.22666716666666667,0.07333333333333333,0.4999999999999999,0.0,0.0,0.0,0.0,0.0,0.0,0.0,0.0,0.0,1.0,1.0,1000.0,100000000.0,0.3
551,1,0.22666716666666667,0.07666666666666667,0.4999999999999999,0.0,0.0,0.0,0.0,0.0,0.0,0.0,0.0,0.0,1.0,1.0,1000.0,100000000.0,0.3
552,1,0.22333383333333331,0.08333333333333334,0.49999999999999983,0.0,0.0,0.0,0.0,0.0,0.0,0.0,0.0,0.0,1.0,1.0,1000.0,100000000.0,0.3
553,1,0.22333383333333331,0.08666666666666666,0.4999999999999998,0.0,0.0,0.0,0.0,0.0,0.0,0.0,0.0,0.0,1.0,1.0,1000.0,100000000.0,0.3
554,1,0.22666716666666667,0.08333333333333334,0.4999999999999998,0.0,0.0,0.0,0.0,0.0,0.0,0.0,0.0,0.0,1.0,1.0,1000.0,100000000.0,0.3
555,1,0.22666716666666667,0.08666666666666666,0.4999999999999997,0.0,0.0,0.0,0.0,0.0,0.0,0.0,0.0,0.0,1.0,1.0,1000.0,100000000.0,0.3
556,1,0.22333383333333331,0.09333333333333334,0.49999999999999917,0.0,0.0,0.0,0.0,0.0,0.0,0.0,0.0,0.0,1.0,1.0,1000.0,100000000.0,0.3
557,1,0.22333383333333331,0.09666666666666666,0.4999999999999991,0.0,0.0,0.0,0.0,0.0,0.0,0.0,0.0,0.0,1.0,1.0,1000.0,100000000.0,0.3
558,1,0.22666716666666667,0.09333333333333334,0.4999999999999991,0.0,0.0,0.0,0.0,0.0,0.0,0.0,0.0,0.0,1.0,1.0,1000.0,100000000.0,0.3
559,1,0.22666716666666667,0.09666666666666666,0.49999999999999906,0.0,0.0,0.0,0.0,0.0,0.0,0.0,0.0,0.0,1.0,1.0,1000.0,100000000.0,0.3
560,1,0.22333383333333331,0.10333333333333335,0.49999999999999983,0.0,0.0,0.0,0.0,0.0,0.0,0.0,0.0,0.0,1.0,1.0,1000.0,100000000.0,0.3
561,1,0.22333383333333331,0.10666666666666666,0.4999999999999998,0.0,0.0,0.0,0.0,0.0,0.0,0.0,0.0,0.0,1.0,1.0,1000.0,100000000.0,0.3
562,1,0.22666716666666667,0.10333333333333335,0.4999999999999998,0.0,0.0,0.0,0.0,0.0,0.0,0.0,0.0,0.0,1.0,1.0,1000.0,100000000.0,0.3
563,1,0.22666716666666667,0.10666666666666666,0.4999999999999997,0.0,0.0,0.0,0.0,0.0,0.0,0.0,0.0,0.0,1.0,1.0,1000.0,100000000.0,0.3
564,1,0.22333383333333331,0.11333333333333334,0.49999999999999983,0.0,0.0,0.0,0.0,0.0,0.0,0.0,0.0,0.0,1.0,1.0,1000.0,100000000.0,0.3
565,1,0.22333383333333331,0.11666666666666667,0.49999999999999983,0.0,0.0,0.0,0.0,0.0,0.0,0.0,0.0,0.0,1.0,1.0,1000.0,100000000.0,0.3
566,1,0.22666716666666667,0.11333333333333334,0.4999999999999998,0.0,0.0,0.0,0.0,0.0,0.0,0.0,0.0,0.0,1.0,1.0,1000.0,100000000.0,0.3
567,1,0.22666716666666667,0.11666666666666667,0.4999999999999999,0.0,0.0,0.0,0.0,0.0,0.0,0.0,0.0,0.0,1.0,1.0,1000.0,100000000.0,0.3
568,1,0.22333383333333331,0.12333333333333334,0.49999999999999917,0.0,0.0,0.0,0.0,0.0,0.0,0.0,0.0,0.0,1.0,1.0,1000.0,100000000.0,0.3
569,1,0.22333383333333331,0.12666666666666665,0.4999999999999991,0.0,0.0,0.0,0.0,0.0,0.0,0.0,0.0,0.0,1.0,1.0,1000.0,100000000.0,0.3
570,1,0.22666716666666667,0.12333333333333334,0.4999999999999991,0.0,0.0,0.0,0.0,0.0,0.0,0.0,0.0,0.0,1.0,1.0,1000.0,100000000.0,0.3
571,1,0.22666716666666667,0.12666666666666665,0.49999999999999906,0.0,0.0,0.0,0.0,0.0,0.0,0.0,0.0,0.0,1.0,1.0,1000.0,100000000.0,0.3
572,1,0.22333383333333331,0.13333333333333333,0.4999999999999991,0.0,-4.782499183000674e-13,0.0,0.0,-2.0496425070002888e-13,0.0,0.0,0.0,0.0,1.0,1.0,1000.0,100000000.0,0.3
573,1,0.22333383333333331,0.13666666666666666,0.4999999999999991,0.0,0.0,0.0,0.0,0.0,0.0,0.0,0.0,0.0,1.0,1.0,1000.0,100000000.0,0.3
574,1,0.22666716666666667,0.13333333333333333,0.4999999999999991,0.0,-4.782499183000674e-13,0.0,0.0,-2.0496425070002888e-13,0.0,0.0,0.0,0.0,1.0,1.0,1000.0,100000000.0,0.3
575,1,0.22666716666666667,0.13666666666666666,0.49999999999999906,0.0,0.0,0.0,0.0,0.0,0.0,0.0,0.0,0.0,1.0,1.0,1000.0,100000000.0,0.3
576,1,0.22333383333333331,0.14333333333333334,0.5000000000000004,0.0,0.0,0.0,0.0,0.0,0.0,0.0,0.0,0.0,1.0,1.0,1000.0,100000000.0,0.3
577,1,0.22333383333333331,0.14666666666666667,0.5000000000000004,0.0,0.0,0.0,0.0,0.0,0.0,0.0,0.0,0.0,1.0,1.0,1000.0,100000000.0,0.3
578,1,0.22666716666666667,0.14333333333333334,0.5000000000000006,0.0,0.0,0.0,0.0,0.0,0.0,0.0,0.0,0.0,1.0,1.0,1000.0,100000000.0,0.3
579,1,0.22666716666666667,0.14666666666666667,0.5000000000000006,0.0,0.0,0.0,0.0,0.0,0.0,0.0,0.0,0.0,1.0,1.0,1000.0,100000000.0,0.3
580,1,0.22333383333333331,0.15333333333333335,0.49999999999999917,0.0,0.0,0.0,0.0,0.0,0.0,0.0,0.0,0.0,1.0,1.0,1000.0,100000000.0,0.3
581,1,0.22333383333333331,0.15666666666666668,0.4999999999999991,0.0,-9.564998366001349e-13,0.0,0.0,-4.0992850140005776e-13,0.0,0.0,0.0,0.0,1.0,1.0,1000.0,100000000.0,0.3
582,1,0.22666716666666667,0.15333333333333335,0.4999999999999991,0.0,0.0,0.0,0.0,0.0,0.0,0.0,0.0,0.0,1.0,1.0,1000.0,100000000.0,0.3
583,1,0.22666716666666667,0.15666666666666668,0.4999999999999991,0.0,-9.564998366001349e-13,0.0,0.0,-4.0992850140005776e-13,0.0,0.0,0.0,0.0,1.0,1.0,1000.0,100000000.0,0.3
584,1,0.22333383333333331,0.16333333333333333,0.4999999999999991,0.0,-4.782499183000674e-13,0.0,0.0,-2.0496425070002888e-13,0.0,0.0,0.0,0.0,1.0,1.0,1000.0,100000000.0,0.3
585,1,0.22333383333333331,0.16666666666666669,0.4999999999999991,0.0,-9.564998366001349e-13,0.0,0.0,-4.0992850140005776e-13,0.0,0.0,0.0,0.0,1.0,1.0,1000.0,100000000.0,0.3
586,1,0.22666716666666667,0.16333333333333333,0.4999999999999991,0.0,-4.782499183000674e-13,0.0,0.0,-2.0496425070002888e-13,0.0,0.0,0.0,0.0,1.0,1.0,1000.0,100000000.0,0.3
587,1,0.22666716666666667,0.16666666666666669,0.4999999999999991,0.0,-9.564998366001349e-13,0.0,0.0,-4.0992850140005776e-13,0.0,0.0,0.0,0.0,1.0,1.0,1000.0,100000000.0,0.3
588,1,0.22333383333333331,0.1733333333333333,0.5000000000000004,0.0,-4.782499183000674e-13,0.0,0.0,-2.0496425070002888e-13,0.0,0.0,0.0,0.0,1.0,1.0,1000.0,100000000.0,0.3
589,1,0.22666716666666667,0.1733333333333333,0.5000000000000006,0.0,-4.782499183000674e-13,0.0,0.0,-2.0496425070002888e-13,0.0,0.0,0.0,0.0,1.0,1.0,1000.0,100000000.0,0.3
590,1,0.23333383333333332,0.03333333333333333,0.5000000000000009,0.0,0.0,0.0,0.0,0.0,0.0,0.0,0.0,0.0,1.0,1.0,1000.0,100000000.0,0.3
591,1,0.23333383333333332,0.03666666666666667,0.5000000000000009,0.0,0.0,0.0,0.0,0.0,0.0,0.0,0.0,0.0,1.0,1.0,1000.0,100000000.0,0.3
592,1,0.23666716666666668,0.03333333333333333,0.5000000000000009,0.0,0.0,0.0,0.0,0.0,0.0,0.0,0.0,0.0,1.0,1.0,1000.0,100000000.0,0.3
593,1,0.23666716666666668,0.03666666666666667,0.5000000000000009,0.0,0.0,0.0,0.0,0.0,0.0,0.0,0.0,0.0,1.0,1.0,1000.0,100000000.0,0.3
594,1,0.23333383333333332,0.04333333333333333,0.5000000000000008,0.0,4.782499183000674e-13,0.0,0.0,2.0496425070002888e-13,0.0,0.0,0.0,0.0,1.0,1.0,1000.0,100000000.0,0.3
595,1,0.23333383333333332,0.04666666666666667,0.5000000000000009,0.0,0.0,0.0,0.0,0.0,0.0,0.0,0.0,0.0,1.0,1.0,1000.0,100000000.0,0.3
596,1,0.23666716666666668,0.04333333333333333,0.5000000000000009,0.0,4.782499183000674e-13,0.0,0.0,2.0496425070002888e-13,0.0,0.0,0.0,0.0,1.0,1.0,1000.0,100000000.0,0.3
597,1,0.23666716666666668,0.04666666666666667,0.5000000000000009,0.0,0.0,0.0,0.0,0.0,0.0,0.0,0.0,0.0,1.0,1.0,1000.0,100000000.0,0.3
598,1,0.23333383333333332,0.05333333333333333,0.5000000000000012,0.0,0.0,0.0,0.0,0.0,0.0,0.0,0.0,0.0,1.0,1.0,1000.0,100000000.0,0.3
599,1,0.23333383333333332,0.05666666666666667,0.5000000000000012,0.0,0.0,0.0,0.0,0.0,0.0,0.0,0.0,0.0,1.0,1.0,1000.0,100000000.0,0.3
600,1,0.23666716666666668,0.05333333333333333,0.5000000000000013,0.0,0.0,0.0,0.0,0.0,0.0,0.0,0.0,0.0,1.0,1.0,1000.0,100000000.0,0.3
601,1,0.23666716666666668,0.05666666666666667,0.5000000000000012,0.0,0.0,0.0,0.0,0.0,0.0,0.0,0.0,0.0,1.0,1.0,1000.0,100000000.0,0.3
602,1,0.23333383333333332,0.06333333333333332,0.5000000000000004,0.0,-4.782499183000674e-13,0.0,0.0,-2.0496425070002888e-13,0.0,0.0,0.0,0.0,1.0,1.0,1000.0,100000000.0,0.3
603,1,0.23333383333333332,0.06666666666666667,0.5000000000000006,0.0,0.0,0.0,0.0,0.0,0.0,0.0,0.0,0.0,1.0,1.0,1000.0,100000000.0,0.3
604,1,0.23666716666666668,0.06333333333333332,0.5000000000000006,0.0,-4.782499183000674e-13,0.0,0.0,-2.0496425070002888e-13,0.0,0.0,0.0,0.0,1.0,1.0,1000.0,100000000.0,0.3
605,1,0.23666716666666668,0.06666666666666667,0.5000000000000004,0.0,0.0,0.0,0.0,0.0,0.0,0.0,0.0,0.0,1.0,1.0,1000.0,100000000.0,0.3
606,1,0.23333383333333332,0.07333333333333333,0.5000000000000012,0.0,0.0,0.0,0.0,0.0,0.0,0.0,0.0,0.0,1.0,1.0,1000.0,100000000.0,0.3
607,1,0.23333383333333332,0.07666666666666667,0.5000000000000012,0.0,0.0,0.0,0.0,0.0,0.0,0.0,0.0,0.0,1.0,1.0,1000.0,100000000.0,0.3
608,1,0.23666716666666668,0.07333333333333333,0.5000000000000013,0.0,0.0,0.0,0.0,0.0,0.0,0.0,0.0,0.0,1.0,1.0,1000.0,100000000.0,0.3
609,1,0.23666716666666668,0.07666666666666667,0.5000000000000012,0.0,0.0,0.0,0.0,0.0,0.0,0.0,0.0,0.0,1.0,1.0,1000.0,100000000.0,0.3
610,1,0.23333383333333332,0.08333333333333334,0.5000000000000012,0.0,0.0,0.0,0.0,0.0,0.0,0.0,0.0,0.0,1.0,1.0,1000.0,100000000.0,0.3
611,1,0.23333383333333332,0.08666666666666666,0.5000000000000012,0.0,0.0,0.0,0.0,0.0,0.0,0.0,0.0,0.0,1.0,1.0,1000.0,100000000.0,0.3
612,1,0.23666716666666668,0.08333333333333334,0.5000000000000011,0.0,0.0,0.0,0.0,0.0,0.0,0.0,0.0,0.0,1.0,1.0,1000.0,100000000.0,0.3
613,1,0.23666716666666668,0.08666666666666666,0.5000000000000011,0.0,0.0,0.0,0.0,0.0,0.0,0.0,0.0,0.0,1.0,1.0,1000.0,100000000.0,0.3
614,1,0.23333383333333332,0.09333333333333334,0.5000000000000006,0.0,0.0,0.0,0.0,0.0,0.0,0.0,0.0,0.0,1.0,1.0,1000.0,100000000.0,0.3
615,1,0.23333383333333332,0.09666666666666666,0.5000000000000006,0.0,0.0,0.0,0.0,0.0,0.0,0.0,0.0,0.0,1.0,1.0,1000.0,100000000.0,0.3
616,1,0.23666716666666668,0.09333333333333334,0.5000000000000004,0.0,0.0,0.0,0.0,0.0,0.0,0.0,0.0,0.0,1.0,1.0,1000.0,100000000.0,0.3
617,1,0.23666716666666668,0.09666666666666666,0.5000000000000004,0.0,0.0,0.0,0.0,0.0,0.0,0.0,0.0,0.0,1.0,1.0,1000.0,100000000.0,0.3
618,1,0.23333383333333332,0.10333333333333335,0.5000000000000012,0.0,0.0,0.0,0.0,0.0,0.0,0.0,0.0,0.0,1.0,1.0,1000.0,100000000.0,0.3
619,1,0.23333383333333332,0.10666666666666666,0.5000000000000012,0.0,0.0,0.0,0.0,0.0,0.0,0.0,0.0,0.0,1.0,1.0,1000.0,100000000.0,0.3
620,1,0.23666716666666668,0.10333333333333335,0.5000000000000011,0.0,0.0,0.0,0.0,0.0,0.0,0.0,0.0,0.0,1.0,1.0,1000.0,100000000.0,0.3
621,1,0.23666716666666668,0.10666666666666666,0.5000000000000011,0.0,0.0,0.0,0.0,0.0,0.0,0.0,0.0,0.0,1.0,1.0,1000.0,100000000.0,0.3
622,1,0.23333383333333332,0.11333333333333334,0.5000000000000012,0.0,0.0,0.0,0.0,0.0,0.0,0.0,0.0,0.0,1.0,1.0,1000.0,100000000.0,0.3
623,1,0.23333383333333332,0.11666666666666667,0.5000000000000012,0.0,0.0,0.0,0.0,0.0,0.0,0.0,0.0,0.0,1.0,1.0,1000.0,100000000.0,0.3
624,1,0.23666716666666668,0.11333333333333334,0.5000000000000011,0.0,0.0,0.0,0.0,0.0,0.0,0.0,0.0,0.0,1.0,1.0,1000.0,100000000.0,0.3
625,1,0.23666716666666668,0.11666666666666667,0.5000000000000012,0.0,0.0,0.0,0.0,0.0,0.0,0.0,0.0,0.0,1.0,1.0,1000.0,100000000.0,0.3
626,1,0.23333383333333332,0.12333333333333334,0.5000000000000006,0.0,0.0,0.0,0.0,0.0,0.0,0.0,0.0,0.0,1.0,1.0,1000.0,100000000.0,0.3
627,1,0.23333383333333332,0.12666666666666665,0.5000000000000006,0.0,0.0,0.0,0.0,0.0,0.0,0.0,0.0,0.0,1.0,1.0,1000.0,100000000.0,0.3
628,1,0.23666716666666668,0.12333333333333334,0.5000000000000004,0.0,0.0,0.0,0.0,0.0,0.0,0.0,0.0,0.0,1.0,1.0,1000.0,100000000.0,0.3
629,1,0.23666716666666668,0.12666666666666665,0.5000000000000004,0.0,0.0,0.0,0.0,0.0,0.0,0.0,0.0,0.0,1.0,1.0,1000.0,100000000.0,0.3
630,1,0.23333383333333332,0.13333333333333333,0.5000000000000004,0.0,-4.782499183000674e-13,0.0,0.0,-2.0496425070002888e-13,0.0,0.0,0.0,0.0,1.0,1.0,1000.0,100000000.0,0.3
631,1,0.23333383333333332,0.13666666666666666,0.5000000000000006,0.0,0.0,0.0,0.0,0.0,0.0,0.0,0.0,0.0,1.0,1.0,1000.0,100000000.0,0.3
632,1,0.23666716666666668,0.13333333333333333,0.5000000000000006,0.0,-4.782499183000674e-13,0.0,0.0,-2.0496425070002888e-13,0.0,0.0,0.0,0.0,1.0,1.0,1000.0,100000000.0,0.3
633,1,0.23666716666666668,0.13666666666666666,0.5000000000000004,0.0,0.0,0.0,0.0,0.0,0.0,0.0,0.0,0.0,1.0,1.0,1000.0,100000000.0,0.3
634,1,0.23333383333333332,0.14333333333333334,0.5000000000000019,0.0,0.0,0.0,0.0,0.0,0.0,0.0,0.0,0.0,1.0,1.0,1000.0,100000000.0,0.3
635,1,0.23333383333333332,0.14666666666666667,0.5000000000000019,0.0,0.0,0.0,0.0,0.0,0.0,0.0,0.0,0.0,1.0,1.0,1000.0,100000000.0,0.3
636,1,0.23666716666666668,0.14333333333333334,0.500000000000002,0.0,0.0,0.0,0.0,0.0,0.0,0.0,0.0,0.0,1.0,1.0,1000.0,100000000.0,0.3
637,1,0.23666716666666668,0.14666666666666667,0.5000000000000019,0.0,0.0,0.0,0.0,0.0,0.0,0.0,0.0,0.0,1.0,1.0,1000.0,100000000.0,0.3
638,1,0.23333383333333332,0.15333333333333335,0.5000000000000006,0.0,0.0,0.0,0.0,0.0,0.0,0.0,0.0,0.0,1.0,1.0,1000.0,100000000.0,0.3
639,1,0.23333383333333332,0.15666666666666668,0.5000000000000006,0.0,-9.564998366001349e-13,0.0,0.0,-4.0992850140005776e-13,0.0,0.0,0.0,0.0,1.0,1.0,1000.0,100000000.0,0.3
640,1,0.23666716666666668,0.15333333333333335,0.5000000000000004,0.0,0.0,0.0,0.0,0.0,0.0,0.0,0.0,0.0,1.0,1.0,1000.0,100000000.0,0.3
641,1,0.23666716666666668,0.15666666666666668,0.5000000000000006,0.0,-9.564998366001349e-13,0.0,0.0,-4.0992850140005776e-13,0.0,0.0,0.0,0.0,1.0,1.0,1000.0,100000000.0,0.3
642,1,0.23333383333333332,0.16333333333333333,0.5000000000000004,0.0,-4.782499183000674e-13,0.0,0.0,-2.0496425070002888e-13,0.0,0.0,0.0,0.0,1.0,1.0,1000.0,100000000.0,0.3
643,1,0.23333383333333332,0.16666666666666669,0.5000000000000006,0.0,-9.564998366001349e-13,0.0,0.0,-4.0992850140005776e-13,0.0,0.0,0.0,0.0,1.0,1.0,1000.0,100000000.0,0.3
644,1,0.23666716666666668,0.16333333333333333,0.5000000000000006,0.0,-4.782499183000674e-13,0.0,0.0,-2.0496425070002888e-13,0.0,0.0,0.0,0.0,1.0,1.0,1000.0,100000000.0,0.3
645,1,0.23666716666666668,0.16666666666666669,0.5000000000000006,0.0,-9.564998366001349e-13,0.0,0.0,-4.0992850140005776e-13,0.0,0.0,0.0,0.0,1.0,1.0,1000.0,100000000.0,0.3
646,1,0.2433338333333333,0.03333333333333333,0.4999999999999995,0.0,0.0,0.0,0.0,0.0,0.0,0.0,0.0,0.0,1.0,1.0,1000.0,100000000.0,0.3
647,1,0.2433338333333333,0.03666666666666667,0.4999999999999995,0.0,0.0,0.0,0.0,0.0,0.0,0.0,0.0,0.0,1.0,1.0,1000.0,100000000.0,0.3
648,1,0.24666716666666666,0.03666666666666667,0.49999999999999956,0.0,0.0,0.0,0.0,0.0,0.0,0.0,0.0,0.0,1.0,1.0,1000.0,100000000.0,0.3
649,1,0.2433338333333333,0.04333333333333333,0.49999999999999944,0.0,4.782499183000674e-13,0.0,0.0,2.0496425070002888e-13,0.0,0.0,0.0,0.0,1.0,1.0,1000.0,100000000.0,0.3
650,1,0.2433338333333333,0.04666666666666667,0.4999999999999995,0.0,0.0,0.0,0.0,0.0,0.0,0.0,0.0,0.0,1.0,1.0,1000.0,100000000.0,0.3
651,1,0.24666716666666666,0.04333333333333333,0.49999999999999944,0.0,4.782499183000674e-13,0.0,0.0,2.0496425070002888e-13,0.0,0.0,0.0,0.0,1.0,1.0,1000.0,100000000.0,0.3
652,1,0.24666716666666666,0.04666666666666667,0.49999999999999956,0.0,0.0,0.0,0.0,0.0,0.0,0.0,0.0,0.0,1.0,1.0,1000.0,100000000.0,0.3
653,1,0.2433338333333333,0.05333333333333333,0.49999999999999983,0.0,0.0,0.0,0.0,0.0,0.0,0.0,0.0,0.0,1.0,1.0,1000.0,100000000.0,0.3
654,1,0.2433338333333333,0.05666666666666667,0.49999999999999983,0.0,0.0,0.0,0.0,0.0,0.0,0.0,0.0,0.0,1.0,1.0,1000.0,100000000.0,0.3
655,1,0.24666716666666666,0.05333333333333333,0.4999999999999999,0.0,0.0,0.0,0.0,0.0,0.0,0.0,0.0,0.0,1.0,1.0,1000.0,100000000.0,0.3
656,1,0.24666716666666666,0.05666666666666667,0.4999999999999999,0.0,0.0,0.0,0.0,0.0,0.0,0.0,0.0,0.0,1.0,1.0,1000.0,100000000.0,0.3
657,1,0.2433338333333333,0.06333333333333332,0.4999999999999991,0.0,-4.782499183000674e-13,0.0,0.0,-2.0496425070002888e-13,0.0,0.0,0.0,0.0,1.0,1.0,1000.0,100000000.0,0.3
658,1,0.2433338333333333,0.06666666666666667,0.4999999999999991,0.0,0.0,0.0,0.0,0.0,0.0,0.0,0.0,0.0,1.0,1.0,1000.0,100000000.0,0.3
659,1,0.24666716666666666,0.06333333333333332,0.4999999999999991,0.0,-4.782499183000674e-13,0.0,0.0,-2.0496425070002888e-13,0.0,0.0,0.0,0.0,1.0,1.0,1000.0,100000000.0,0.3
660,1,0.24666716666666666,0.06666666666666667,0.49999999999999906,0.0,0.0,0.0,0.0,0.0,0.0,0.0,0.0,0.0,1.0,1.0,1000.0,100000000.0,0.3
661,1,0.2433338333333333,0.07333333333333333,0.49999999999999983,0.0,0.0,0.0,0.0,0.0,0.0,0.0,0.0,0.0,1.0,1.0,1000.0,100000000.0,0.3
662,1,0.2433338333333333,0.07666666666666667,0.49999999999999983,0.0,0.0,0.0,0.0,0.0,0.0,0.0,0.0,0.0,1.0,1.0,1000.0,100000000.0,0.3
663,1,0.24666716666666666,0.07333333333333333,0.4999999999999999,0.0,0.0,0.0,0.0,0.0,0.0,0.0,0.0,0.0,1.0,1.0,1000.0,100000000.0,0.3
664,1,0.24666716666666666,0.07666666666666667,0.4999999999999999,0.0,0.0,0.0,0.0,0.0,0.0,0.0,0.0,0.0,1.0,1.0,1000.0,100000000.0,0.3
665,1,0.2433338333333333,0.08333333333333334,0.49999999999999983,0.0,0.0,0.0,0.0,0.0,0.0,0.0,0.0,0.0,1.0,1.0,1000.0,100000000.0,0.3
666,1,0.2433338333333333,0.08666666666666666,0.4999999999999998,0.0,0.0,0.0,0.0,0.0,0.0,0.0,0.0,0.0,1.0,1.0,1000.0,100000000.0,0.3
667,1,0.24666716666666666,0.08333333333333334,0.4999999999999998,0.0,0.0,0.0,0.0,0.0,0.0,0.0,0.0,0.0,1.0,1.0,1000.0,100000000.0,0.3
668,1,0.24666716666666666,0.08666666666666666,0.4999999999999997,0.0,0.0,0.0,0.0,0.0,0.0,0.0,0.0,0.0,1.0,1.0,1000.0,100000000.0,0.3
669,1,0.2433338333333333,0.09333333333333334,0.49999999999999917,0.0,0.0,0.0,0.0,0.0,0.0,0.0,0.0,0.0,1.0,1.0,1000.0,100000000.0,0.3
670,1,0.2433338333333333,0.09666666666666666,0.4999999999999991,0.0,0.0,0.0,0.0,0.0,0.0,0.0,0.0,0.0,1.0,1.0,1000.0,100000000.0,0.3
671,1,0.24666716666666666,0.09333333333333334,0.4999999999999991,0.0,0.0,0.0,0.0,0.0,0.0,0.0,0.0,0.0,1.0,1.0,1000.0,100000000.0,0.3
672,1,0.24666716666666666,0.09666666666666666,0.49999999999999906,0.0,0.0,0.0,0.0,0.0,0.0,0.0,0.0,0.0,1.0,1.0,1000.0,100000000.0,0.3
673,1,0.2433338333333333,0.10333333333333335,0.49999999999999983,0.0,0.0,0.0,0.0,0.0,0.0,0.0,0.0,0.0,1.0,1.0,1000.0,100000000.0,0.3
674,1,0.2433338333333333,0.10666666666666666,0.4999999999999998,0.0,0.0,0.0,0.0,0.0,0.0,0.0,0.0,0.0,1.0,1.0,1000.0,100000000.0,0.3
675,1,0.24666716666666666,0.10333333333333335,0.4999999999999998,0.0,0.0,0.0,0.0,0.0,0.0,0.0,0.0,0.0,1.0,1.0,1000.0,100000000.0,0.3
676,1,0.24666716666666666,0.10666666666666666,0.4999999999999997,0.0,0.0,0.0,0.0,0.0,0.0,0.0,0.0,0.0,1.0,1.0,1000.0,100000000.0,0.3
677,1,0.2433338333333333,0.11333333333333334,0.49999999999999983,0.0,0.0,0.0,0.0,0.0,0.0,0.0,0.0,0.0,1.0,1.0,1000.0,100000000.0,0.3
678,1,0.2433338333333333,0.11666666666666667,0.49999999999999983,0.0,0.0,0.0,0.0,0.0,0.0,0.0,0.0,0.0,1.0,1.0,1000.0,100000000.0,0.3
679,1,0.24666716666666666,0.11333333333333334,0.4999999999999998,0.0,0.0,0.0,0.0,0.0,0.0,0.0,0.0,0.0,1.0,1.0,1000.0,100000000.0,0.3
680,1,0.24666716666666666,0.11666666666666667,0.4999999999999999,0.0,0.0,0.0,0.0,0.0,0.0,0.0,0.0,0.0,1.0,1.0,1000.0,100000000.0,0.3
681,1,0.2433338333333333,0.12333333333333334,0.49999999999999917,0.0,0.0,0.0,0.0,0.0,0.0,0.0,0.0,0.0,1.0,1.0,1000.0,100000000.0,0.3
682,1,0.2433338333333333,0.12666666666666665,0.4999999999999991,0.0,0.0,0.0,0.0,0.0,0.0,0.0,0.0,0.0,1.0,1.0,1000.0,100000000.0,0.3
683,1,0.24666716666666666,0.12333333333333334,0.4999999999999991,0.0,0.0,0.0,0.0,0.0,0.0,0.0,0.0,0.0,1.0,1.0,1000.0,100000000.0,0.3
684,1,0.24666716666666666,0.12666666666666665,0.49999999999999906,0.0,0.0,0.0,0.0,0.0,0.0,0.0,0.0,0.0,1.0,1.0,1000.0,100000000.0,0.3
685,1,0.2433338333333333,0.13333333333333333,0.4999999999999991,0.0,-4.782499183000674e-13,0.0,0.0,-2.0496425070002888e-13,0.0,0.0,0.0,0.0,1.0,1.0,1000.0,100000000.0,0.3
686,1,0.2433338333333333,0.13666666666666666,0.4999999999999991,0.0,0.0,0.0,0.0,0.0,0.0,0.0,0.0,0.0,1.0,1.0,1000.0,100000000.0,0.3
687,1,0.24666716666666666,0.13333333333333333,0.4999999999999991,0.0,-4.782499183000674e-13,0.0,0.0,-2.0496425070002888e-13,0.0,0.0,0.0,0.0,1.0,1.0,1000.0,100000000.0,0.3
688,1,0.24666716666666666,0.13666666666666666,0.49999999999999906,0.0,0.0,0.0,0.0,0.0,0.0,0.0,0.0,0.0,1.0,1.0,1000.0,100000000.0,0.3
689,1,0.2433338333333333,0.14333333333333334,0.5000000000000004,0.0,0.0,0.0,0.0,0.0,0.0,0.0,0.0,0.0,1.0,1.0,1000.0,100000000.0,0.3
690,1,0.2433338333333333,0.14666666666666667,0.5000000000000004,0.0,0.0,0.0,0.0,0.0,0.0,0.0,0.0,0.0,1.0,1.0,1000.0,100000000.0,0.3
691,1,0.24666716666666666,0.14333333333333334,0.5000000000000006,0.0,0.0,0.0,0.0,0.0,0.0,0.0,0.0,0.0,1.0,1.0,1000.0,100000000.0,0.3
692,1,0.24666716666666666,0.14666666666666667,0.5000000000000006,0.0,0.0,0.0,0.0,0.0,0.0,0.0,0.0,0.0,1.0,1.0,1000.0,100000000.0,0.3
693,1,0.2433338333333333,0.15333333333333335,0.49999999999999917,0.0,0.0,0.0,0.0,0.0,0.0,0.0,0.0,0.0,1.0,1.0,1000.0,100000000.0,0.3
694,1,0.2433338333333333,0.15666666666666668,0.4999999999999991,0.0,-9.564998366001349e-13,0.0,0.0,-4.0992850140005776e-13,0.0,0.0,0.0,0.0,1.0,1.0,1000.0,100000000.0,0.3
695,1,0.24666716666666666,0.15333333333333335,0.4999999999999991,0.0,0.0,0.0,0.0,0.0,0.0,0.0,0.0,0.0,1.0,1.0,1000.0,100000000.0,0.3
696,1,0.24666716666666666,0.15666666666666668,0.4999999999999991,0.0,-9.564998366001349e-13,0.0,0.0,-4.0992850140005776e-13,0.0,0.0,0.0,0.0,1.0,1.0,1000.0,100000000.0,0.3
697,1,0.2433338333333333,0.16333333333333333,0.4999999999999991,0.0,-4.782499183000674e-13,0.0,0.0,-2.0496425070002888e-13,0.0,0.0,0.0,0.0,1.0,1.0,1000.0,100000000.0,0.3
698,1,0.2433338333333333,0.16666666666666669,0.4999999999999991,0.0,-9.564998366001349e-13,0.0,0.0,-4.0992850140005776e-13,0.0,0.0,0.0,0.0,1.0,1.0,1000.0,100000000.0,0.3
699,1,0.24666716666666666,0.16333333333333333,0.4999999999999991,0.0,-4.782499183000674e-13,0.0,0.0,-2.0496425070002888e-13,0.0,0.0,0.0,0.0,1.0,1.0,1000.0,100000000.0,0.3
700,1,0.2533338333333333,0.04333333333333333,0.49999999999999944,0.0,4.782499183000674e-13,0.0,0.0,2.0496425070002888e-13,0.0,0.0,0.0,0.0,1.0,1.0,1000.0,100000000.0,0.3
701,1,0.2533338333333333,0.04666666666666667,0.4999999999999995,0.0,0.0,0.0,0.0,0.0,0.0,0.0,0.0,0.0,1.0,1.0,1000.0,100000000.0,0.3
702,1,0.2566671666666667,0.04666666666666667,0.49999999999999956,0.0,0.0,0.0,0.0,0.0,0.0,0.0,0.0,0.0,1.0,1.0,1000.0,100000000.0,0.3
703,1,0.2533338333333333,0.05333333333333333,0.4999999999999999,0.0,0.0,0.0,0.0,0.0,0.0,0.0,0.0,0.0,1.0,1.0,1000.0,100000000.0,0.3
704,1,0.2533338333333333,0.05666666666666667,0.49999999999999983,0.0,0.0,0.0,0.0,0.0,0.0,0.0,0.0,0.0,1.0,1.0,1000.0,100000000.0,0.3
705,1,0.2566671666666667,0.05333333333333333,0.49999999999999983,0.0,0.0,0.0,0.0,0.0,0.0,0.0,0.0,0.0,1.0,1.0,1000.0,100000000.0,0.3
706,1,0.2566671666666667,0.05666666666666667,0.4999999999999999,0.0,0.0,0.0,0.0,0.0,0.0,0.0,0.0,0.0,1.0,1.0,1000.0,100000000.0,0.3
707,1,0.2533338333333333,0.06333333333333332,0.4999999999999991,0.0,-4.782499183000674e-13,0.0,0.0,-2.0496425070002888e-13,0.0,0.0,0.0,0.0,1.0,1.0,1000.0,100000000.0,0.3
708,1,0.2533338333333333,0.06666666666666667,0.49999999999999917,0.0,0.0,0.0,0.0,0.0,0.0,0.0,0.0,0.0,1.0,1.0,1000.0,100000000.0,0.3
709,1,0.2566671666666667,0.06333333333333332,0.4999999999999991,0.0,-4.782499183000674e-13,0.0,0.0,-2.0496425070002888e-13,0.0,0.0,0.0,0.0,1.0,1.0,1000.0,100000000.0,0.3
710,1,0.2566671666666667,0.06666666666666667,0.4999999999999991,0.0,0.0,0.0,0.0,0.0,0.0,0.0,0.0,0.0,1.0,1.0,1000.0,100000000.0,0.3
711,1,0.2533338333333333,0.07333333333333333,0.4999999999999999,0.0,0.0,0.0,0.0,0.0,0.0,0.0,0.0,0.0,1.0,1.0,1000.0,100000000.0,0.3
712,1,0.2533338333333333,0.07666666666666667,0.49999999999999983,0.0,0.0,0.0,0.0,0.0,0.0,0.0,0.0,0.0,1.0,1.0,1000.0,100000000.0,0.3
713,1,0.2566671666666667,0.07333333333333333,0.49999999999999983,0.0,0.0,0.0,0.0,0.0,0.0,0.0,0.0,0.0,1.0,1.0,1000.0,100000000.0,0.3
714,1,0.2566671666666667,0.07666666666666667,0.4999999999999999,0.0,0.0,0.0,0.0,0.0,0.0,0.0,0.0,0.0,1.0,1.0,1000.0,100000000.0,0.3
715,1,0.2533338333333333,0.08333333333333334,0.4999999999999998,0.0,0.0,0.0,0.0,0.0,0.0,0.0,0.0,0.0,1.0,1.0,1000.0,100000000.0,0.3
716,1,0.2533338333333333,0.08666666666666666,0.49999999999999983,0.0,0.0,0.0,0.0,0.0,0.0,0.0,0.0,0.0,1.0,1.0,1000.0,100000000.0,0.3
717,1,0.2566671666666667,0.08333333333333334,0.49999999999999983,0.0,0.0,0.0,0.0,0.0,0.0,0.0,0.0,0.0,1.0,1.0,1000.0,100000000.0,0.3
718,1,0.2566671666666667,0.08666666666666666,0.4999999999999998,0.0,0.0,0.0,0.0,0.0,0.0,0.0,0.0,0.0,1.0,1.0,1000.0,100000000.0,0.3
719,1,0.2533338333333333,0.09333333333333334,0.4999999999999991,0.0,0.0,0.0,0.0,0.0,0.0,0.0,0.0,0.0,1.0,1.0,1000.0,100000000.0,0.3
720,1,0.2533338333333333,0.09666666666666666,0.49999999999999917,0.0,0.0,0.0,0.0,0.0,0.0,0.0,0.0,0.0,1.0,1.0,1000.0,100000000.0,0.3
721,1,0.2566671666666667,0.09333333333333334,0.49999999999999917,0.0,0.0,0.0,0.0,0.0,0.0,0.0,0.0,0.0,1.0,1.0,1000.0,100000000.0,0.3
722,1,0.2566671666666667,0.09666666666666666,0.4999999999999991,0.0,0.0,0.0,0.0,0.0,0.0,0.0,0.0,0.0,1.0,1.0,1000.0,100000000.0,0.3
723,1,0.2533338333333333,0.10333333333333335,0.4999999999999998,0.0,0.0,0.0,0.0,0.0,0.0,0.0,0.0,0.0,1.0,1.0,1000.0,100000000.0,0.3
724,1,0.2533338333333333,0.10666666666666666,0.49999999999999983,0.0,0.0,0.0,0.0,0.0,0.0,0.0,0.0,0.0,1.0,1.0,1000.0,100000000.0,0.3
725,1,0.2566671666666667,0.10333333333333335,0.49999999999999983,0.0,0.0,0.0,0.0,0.0,0.0,0.0,0.0,0.0,1.0,1.0,1000.0,100000000.0,0.3
726,1,0.2566671666666667,0.10666666666666666,0.4999999999999998,0.0,0.0,0.0,0.0,0.0,0.0,0.0,0.0,0.0,1.0,1.0,1000.0,100000000.0,0.3
727,1,0.2533338333333333,0.11333333333333334,0.4999999999999998,0.0,0.0,0.0,0.0,0.0,0.0,0.0,0.0,0.0,1.0,1.0,1000.0,100000000.0,0.3
728,1,0.2533338333333333,0.11666666666666667,0.49999999999999983,0.0,0.0,0.0,0.0,0.0,0.0,0.0,0.0,0.0,1.0,1.0,1000.0,100000000.0,0.3
729,1,0.2566671666666667,0.11333333333333334,0.49999999999999983,0.0,0.0,0.0,0.0,0.0,0.0,0.0,0.0,0.0,1.0,1.0,1000.0,100000000.0,0.3
730,1,0.2566671666666667,0.11666666666666667,0.4999999999999999,0.0,0.0,0.0,0.0,0.0,0.0,0.0,0.0,0.0,1.0,1.0,1000.0,100000000.0,0.3
731,1,0.2533338333333333,0.12333333333333334,0.4999999999999991,0.0,0.0,0.0,0.0,0.0,0.0,0.0,0.0,0.0,1.0,1.0,1000.0,100000000.0,0.3
732,1,0.2533338333333333,0.12666666666666665,0.49999999999999917,0.0,0.0,0.0,0.0,0.0,0.0,0.0,0.0,0.0,1.0,1.0,1000.0,100000000.0,0.3
733,1,0.2566671666666667,0.12333333333333334,0.49999999999999917,0.0,0.0,0.0,0.0,0.0,0.0,0.0,0.0,0.0,1.0,1.0,1000.0,100000000.0,0.3
734,1,0.2566671666666667,0.12666666666666665,0.4999999999999991,0.0,0.0,0.0,0.0,0.0,0.0,0.0,0.0,0.0,1.0,1.0,1000.0,100000000.0,0.3
735,1,0.2533338333333333,0.13333333333333333,0.4999999999999991,0.0,-4.782499183000674e-13,0.0,0.0,-2.0496425070002888e-13,0.0,0.0,0.0,0.0,1.0,1.0,1000.0,100000000.0,0.3
736,1,0.2533338333333333,0.13666666666666666,0.49999999999999917,0.0,0.0,0.0,0.0,0.0,0.0,0.0,0.0,0.0,1.0,1.0,1000.0,100000000.0,0.3
737,1,0.2566671666666667,0.13333333333333333,0.4999999999999991,0.0,-4.782499183000674e-13,0.0,0.0,-2.0496425070002888e-13,0.0,0.0,0.0,0.0,1.0,1.0,1000.0,100000000.0,0.3
738,1,0.2566671666666667,0.13666666666666666,0.4999999999999991,0.0,0.0,0.0,0.0,0.0,0.0,0.0,0.0,0.0,1.0,1.0,1000.0,100000000.0,0.3
739,1,0.2533338333333333,0.14333333333333334,0.5000000000000006,0.0,0.0,0.0,0.0,0.0,0.0,0.0,0.0,0.0,1.0,1.0,1000.0,100000000.0,0.3
740,1,0.2533338333333333,0.14666666666666667,0.5000000000000006,0.0,0.0,0.0,0.0,0.0,0.0,0.0,0.0,0.0,1.0,1.0,1000.0,100000000.0,0.3
741,1,0.2566671666666667,0.14333333333333334,0.5000000000000004,0.0,0.0,0.0,0.0,0.0,0.0,0.0,0.0,0.0,1.0,1.0,1000.0,100000000.0,0.3
742,1,0.2566671666666667,0.14666666666666667,0.5000000000000006,0.0,0.0,0.0,0.0,0.0,0.0,0.0,0.0,0.0,1.0,1.0,1000.0,100000000.0,0.3
743,1,0.2533338333333333,0.15333333333333335,0.4999999999999991,0.0,0.0,0.0,0.0,0.0,0.0,0.0,0.0,0.0,1.0,1.0,1000.0,100000000.0,0.3
744,1,0.2533338333333333,0.15666666666666668,0.4999999999999991,0.0,-9.564998366001349e-13,0.0,0.0,-4.0992850140005776e-13,0.0,0.0,0.0,0.0,1.0,1.0,1000.0,100000000.0,0.3
745,1,0.2566671666666667,0.15333333333333335,0.49999999999999917,0.0,0.0,0.0,0.0,0.0,0.0,0.0,0.0,0.0,1.0,1.0,1000.0,100000000.0,0.3
746,1,0.2633338333333333,0.05333333333333333,0.4999999999999999,0.0,0.0,0.0,0.0,0.0,0.0,0.0,0.0,0.0,1.0,1.0,1000.0,100000000.0,0.3
747,1,0.2633338333333333,0.05666666666666667,0.49999999999999983,0.0,0.0,0.0,0.0,0.0,0.0,0.0,0.0,0.0,1.0,1.0,1000.0,100000000.0,0.3
748,1,0.2666671666666667,0.05666666666666667,0.49999999999999983,0.0,0.0,0.0,0.0,0.0,0.0,0.0,0.0,0.0,1.0,1.0,1000.0,100000000.0,0.3
749,1,0.2633338333333333,0.06333333333333332,0.4999999999999991,0.0,-4.782499183000674e-13,0.0,0.0,-2.0496425070002888e-13,0.0,0.0,0.0,0.0,1.0,1.0,1000.0,100000000.0,0.3
750,1,0.2633338333333333,0.06666666666666667,0.49999999999999917,0.0,0.0,0.0,0.0,0.0,0.0,0.0,0.0,0.0,1.0,1.0,1000.0,100000000.0,0.3
751,1,0.2666671666666667,0.06333333333333332,0.4999999999999991,0.0,-4.782499183000674e-13,0.0,0.0,-2.0496425070002888e-13,0.0,0.0,0.0,0.0,1.0,1.0,1000.0,100000000.0,0.3
752,1,0.2666671666666667,0.06666666666666667,0.4999999999999991,0.0,0.0,0.0,0.0,0.0,0.0,0.0,0.0,0.0,1.0,1.0,1000.0,100000000.0,0.3
753,1,0.2633338333333333,0.07333333333333333,0.4999999999999999,0.0,0.0,0.0,0.0,0.0,0.0,0.0,0.0,0.0,1.0,1.0,1000.0,100000000.0,0.3
754,1,0.2633338333333333,0.07666666666666667,0.49999999999999983,0.0,0.0,0.0,0.0,0.0,0.0,0.0,0.0,0.0,1.0,1.0,1000.0,100000000.0,0.3
755,1,0.2666671666666667,0.07333333333333333,0.4999999999999998,0.0,0.0,0.0,0.0,0.0,0.0,0.0,0.0,0.0,1.0,1.0,1000.0,100000000.0,0.3
756,1,0.2666671666666667,0.07666666666666667,0.49999999999999983,0.0,0.0,0.0,0.0,0.0,0.0,0.0,0.0,0.0,1.0,1.0,1000.0,100000000.0,0.3
757,1,0.2633338333333333,0.08333333333333334,0.4999999999999998,0.0,0.0,0.0,0.0,0.0,0.0,0.0,0.0,0.0,1.0,1.0,1000.0,100000000.0,0.3
758,1,0.2633338333333333,0.08666666666666666,0.49999999999999983,0.0,0.0,0.0,0.0,0.0,0.0,0.0,0.0,0.0,1.0,1.0,1000.0,100000000.0,0.3
759,1,0.2666671666666667,0.08333333333333334,0.4999999999999998,0.0,0.0,0.0,0.0,0.0,0.0,0.0,0.0,0.0,1.0,1.0,1000.0,100000000.0,0.3
760,1,0.2666671666666667,0.08666666666666666,0.4999999999999998,0.0,0.0,0.0,0.0,0.0,0.0,0.0,0.0,0.0,1.0,1.0,1000.0,100000000.0,0.3
761,1,0.2633338333333333,0.09333333333333334,0.4999999999999991,0.0,0.0,0.0,0.0,0.0,0.0,0.0,0.0,0.0,1.0,1.0,1000.0,100000000.0,0.3
762,1,0.2633338333333333,0.09666666666666666,0.49999999999999917,0.0,0.0,0.0,0.0,0.0,0.0,0.0,0.0,0.0,1.0,1.0,1000.0,100000000.0,0.3
763,1,0.2666671666666667,0.09333333333333334,0.4999999999999991,0.0,0.0,0.0,0.0,0.0,0.0,0.0,0.0,0.0,1.0,1.0,1000.0,100000000.0,0.3
764,1,0.2666671666666667,0.09666666666666666,0.4999999999999991,0.0,0.0,0.0,0.0,0.0,0.0,0.0,0.0,0.0,1.0,1.0,1000.0,100000000.0,0.3
765,1,0.2633338333333333,0.10333333333333335,0.4999999999999998,0.0,0.0,0.0,0.0,0.0,0.0,0.0,0.0,0.0,1.0,1.0,1000.0,100000000.0,0.3
766,1,0.2633338333333333,0.10666666666666666,0.49999999999999983,0.0,0.0,0.0,0.0,0.0,0.0,0.0,0.0,0.0,1.0,1.0,1000.0,100000000.0,0.3
767,1,0.2666671666666667,0.10333333333333335,0.4999999999999998,0.0,0.0,0.0,0.0,0.0,0.0,0.0,0.0,0.0,1.0,1.0,1000.0,100000000.0,0.3
768,1,0.2666671666666667,0.10666666666666666,0.4999999999999998,0.0,0.0,0.0,0.0,0.0,0.0,0.0,0.0,0.0,1.0,1.0,1000.0,100000000.0,0.3
769,1,0.2633338333333333,0.11333333333333334,0.4999999999999998,0.0,0.0,0.0,0.0,0.0,0.0,0.0,0.0,0.0,1.0,1.0,1000.0,100000000.0,0.3
770,1,0.2633338333333333,0.11666666666666667,0.49999999999999983,0.0,0.0,0.0,0.0,0.0,0.0,0.0,0.0,0.0,1.0,1.0,1000.0,100000000.0,0.3
771,1,0.2666671666666667,0.11333333333333334,0.4999999999999998,0.0,0.0,0.0,0.0,0.0,0.0,0.0,0.0,0.0,1.0,1.0,1000.0,100000000.0,0.3
772,1,0.2666671666666667,0.11666666666666667,0.49999999999999983,0.0,0.0,0.0,0.0,0.0,0.0,0.0,0.0,0.0,1.0,1.0,1000.0,100000000.0,0.3
773,1,0.2633338333333333,0.12333333333333334,0.4999999999999991,0.0,0.0,0.0,0.0,0.0,0.0,0.0,0.0,0.0,1.0,1.0,1000.0,100000000.0,0.3
774,1,0.2633338333333333,0.12666666666666665,0.49999999999999917,0.0,0.0,0.0,0.0,0.0,0.0,0.0,0.0,0.0,1.0,1.0,1000.0,100000000.0,0.3
775,1,0.2666671666666667,0.12333333333333334,0.4999999999999991,0.0,0.0,0.0,0.0,0.0,0.0,0.0,0.0,0.0,1.0,1.0,1000.0,100000000.0,0.3
776,1,0.2666671666666667,0.12666666666666665,0.4999999999999991,0.0,0.0,0.0,0.0,0.0,0.0,0.0,0.0,0.0,1.0,1.0,1000.0,100000000.0,0.3
777,1,0.2633338333333333,0.13333333333333333,0.4999999999999991,0.0,-4.782499183000674e-13,0.0,0.0,-2.0496425070002888e-13,0.0,0.0,0.0,0.0,1.0,1.0,1000.0,100000000.0,0.3
778,1,0.2633338333333333,0.13666666666666666,0.49999999999999917,0.0,0.0,0.0,0.0,0.0,0.0,0.0,0.0,0.0,1.0,1.0,1000.0,100000000.0,0.3
779,1,0.2666671666666667,0.13333333333333333,0.4999999999999991,0.0,-4.782499183000674e-13,0.0,0.0,-2.0496425070002888e-13,0.0,0.0,0.0,0.0,1.0,1.0,1000.0,100000000.0,0.3
780,1,0.2666671666666667,0.13666666666666666,0.4999999999999991,0.0,0.0,0.0,0.0,0.0,0.0,0.0,0.0,0.0,1.0,1.0,1000.0,100000000.0,0.3
781,1,0.2633338333333333,0.14333333333333334,0.5000000000000006,0.0,0.0,0.0,0.0,0.0,0.0,0.0,0.0,0.0,1.0,1.0,1000.0,100000000.0,0.3
782,1,0.2633338333333333,0.14666666666666667,0.5000000000000006,0.0,0.0,0.0,0.0,0.0,0.0,0.0,0.0,0.0,1.0,1.0,1000.0,100000000.0,0.3
783,1,0.2666671666666667,0.14333333333333334,0.5000000000000004,0.0,0.0,0.0,0.0,0.0,0.0,0.0,0.0,0.0,1.0,1.0,1000.0,100000000.0,0.3
784,1,0.27333383333333333,0.07333333333333333,0.4999999999999999,0.0,0.0,0.0,0.0,0.0,0.0,0.0,0.0,0.0,1.0,1.0,1000.0,100000000.0,0.3
785,1,0.27333383333333333,0.07666666666666667,0.49999999999999983,0.0,0.0,0.0,0.0,0.0,0.0,0.0,0.0,0.0,1.0,1.0,1000.0,100000000.0,0.3
786,1,0.27333383333333333,0.08333333333333334,0.4999999999999998,0.0,0.0,0.0,0.0,0.0,0.0,0.0,0.0,0.0,1.0,1.0,1000.0,100000000.0,0.3
787,1,0.27333383333333333,0.08666666666666666,0.49999999999999983,0.0,0.0,0.0,0.0,0.0,0.0,0.0,0.0,0.0,1.0,1.0,1000.0,100000000.0,0.3
788,1,0.2766671666666667,0.08333333333333334,0.4999999999999998,0.0,0.0,0.0,0.0,0.0,0.0,0.0,0.0,0.0,1.0,1.0,1000.0,100000000.0,0.3
789,1,0.2766671666666667,0.08666666666666666,0.4999999999999998,0.0,0.0,0.0,0.0,0.0,0.0,0.0,0.0,0.0,1.0,1.0,1000.0,100000000.0,0.3
790,1,0.27333383333333333,0.09333333333333334,0.4999999999999991,0.0,0.0,0.0,0.0,0.0,0.0,0.0,0.0,0.0,1.0,1.0,1000.0,100000000.0,0.3
791,1,0.27333383333333333,0.09666666666666666,0.49999999999999917,0.0,0.0,0.0,0.0,0.0,0.0,0.0,0.0,0.0,1.0,1.0,1000.0,100000000.0,0.3
792,1,0.2766671666666667,0.09333333333333334,0.4999999999999991,0.0,0.0,0.0,0.0,0.0,0.0,0.0,0.0,0.0,1.0,1.0,1000.0,100000000.0,0.3
793,1,0.2766671666666667,0.09666666666666666,0.4999999999999991,0.0,0.0,0.0,0.0,0.0,0.0,0.0,0.0,0.0,1.0,1.0,1000.0,100000000.0,0.3
794,1,0.27333383333333333,0.10333333333333335,0.4999999999999998,0.0,0.0,0.0,0.0,0.0,0.0,0.0,0.0,0.0,1.0,1.0,1000.0,100000000.0,0.3
795,1,0.27333383333333333,0.10666666666666666,0.49999999999999983,0.0,0.0,0.0,0.0,0.0,0.0,0.0,0.0,0.0,1.0,1.0,1000.0,100000000.0,0.3
796,1,0.2766671666666667,0.10333333333333335,0.4999999999999998,0.0,0.0,0.0,0.0,0.0,0.0,0.0,0.0,0.0,1.0,1.0,1000.0,100000000.0,0.3
797,1,0.2766671666666667,0.10666666666666666,0.4999999999999998,0.0,0.0,0.0,0.0,0.0,0.0,0.0,0.0,0.0,1.0,1.0,1000.0,100000000.0,0.3
798,1,0.27333383333333333,0.11333333333333334,0.4999999999999998,0.0,0.0,0.0,0.0,0.0,0.0,0.0,0.0,0.0,1.0,1.0,1000.0,100000000.0,0.3
799,1,0.27333383333333333,0.11666666666666667,0.49999999999999983,0.0,0.0,0.0,0.0,0.0,0.0,0.0,0.0,0.0,1.0,1.0,1000.0,100000000.0,0.3
800,1,0.2766671666666667,0.11333333333333334,0.4999999999999998,0.0,0.0,0.0,0.0,0.0,0.0,0.0,0.0,0.0,1.0,1.0,1000.0,100000000.0,0.3
801,1,0.2766671666666667,0.11666666666666667,0.49999999999999983,0.0,0.0,0.0,0.0,0.0,0.0,0.0,0.0,0.0,1.0,1.0,1000.0,100000000.0,0.3
802,1,0.27333383333333333,0.12333333333333334,0.4999999999999991,0.0,0.0,0.0,0.0,0.0,0.0,0.0,0.0,0.0,1.0,1.0,1000.0,100000000.0,0.3
803,1,0.27333383333333333,0.12666666666666665,0.49999999999999917,0.0,0.0,0.0,0.0,0.0,0.0,0.0,0.0,0.0,1.0,1.0,1000.0,100000000.0,0.3
804,2,0.3066661666666667,0.07333333333333333,-0.49999999999999983,0.0,0.0,0.0,0.0,0.0,0.0,0.0,0.0,0.0,1.0,1.0,1000.0,100000000.0,0.3
805,2,0.3066661666666667,0.07666666666666667,-0.4999999999999999,0.0,0.0,0.0,0.0,0.0,0.0,0.0,0.0,0.0,1.0,1.0,1000.0,100000000.0,0.3
806,2,0.30333283333333333,0.08333333333333334,-0.4999999999999998,0.0,0.0,0.0,0.0,0.0,0.0,0.0,0.0,0.0,1.0,1.0,1000.0,100000000.0,0.3
807,2,0.30333283333333333,0.08666666666666666,-0.4999999999999998,0.0,0.0,0.0,0.0,0.0,0.0,0.0,0.0,0.0,1.0,1.0,1000.0,100000000.0,0.3
808,2,0.3066661666666667,0.08333333333333334,-0.49999999999999983,0.0,0.0,0.0,0.0,0.0,0.0,0.0,0.0,0.0,1.0,1.0,1000.0,100000000.0,0.3
809,2,0.3066661666666667,0.08666666666666666,-0.4999999999999998,0.0,0.0,0.0,0.0,0.0,0.0,0.0,0.0,0.0,1.0,1.0,1000.0,100000000.0,0.3
810,2,0.30333283333333333,0.09333333333333334,-0.4999999999999991,0.0,0.0,0.0,0.0,0.0,0.0,0.0,0.0,0.0,1.0,1.0,1000.0,100000000.0,0.3
811,2,0.30333283333333333,0.09666666666666666,-0.4999999999999991,0.0,0.0,0.0,0.0,0.0,0.0,0.0,0.0,0.0,1.0,1.0,1000.0,100000000.0,0.3
812,2,0.3066661666666667,0.09333333333333334,-0.49999999999999917,0.0,0.0,0.0,0.0,0.0,0.0,0.0,0.0,0.0,1.0,1.0,1000.0,100000000.0,0.3
813,2,0.3066661666666667,0.09666666666666666,-0.4999999999999991,0.0,0.0,0.0,0.0,0.0,0.0,0.0,0.0,0.0,1.0,1.0,1000.0,100000000.0,0.3
814,2,0.30333283333333333,0.10333333333333335,-0.4999999999999998,0.0,0.0,0.0,0.0,0.0,0.0,0.0,0.0,0.0,1.0,1.0,1000.0,100000000.0,0.3
815,2,0.30333283333333333,0.10666666666666666,-0.4999999999999998,0.0,0.0,0.0,0.0,0.0,0.0,0.0,0.0,0.0,1.0,1.0,1000.0,100000000.0,0.3
816,2,0.3066661666666667,0.10333333333333335,-0.49999999999999983,0.0,0.0,0.0,0.0,0.0,0.0,0.0,0.0,0.0,1.0,1.0,1000.0,100000000.0,0.3
817,2,0.3066661666666667,0.10666666666666666,-0.4999999999999998,0.0,0.0,0.0,0.0,0.0,0.0,0.0,0.0,0.0,1.0,1.0,1000.0,100000000.0,0.3
818,2,0.30333283333333333,0.11333333333333334,-0.4999999999999998,0.0,0.0,0.0,0.0,0.0,0.0,0.0,0.0,0.0,1.0,1.0,1000.0,100000000.0,0.3
819,2,0.30333283333333333,0.11666666666666667,-0.4999999999999998,0.0,0.0,0.0,0.0,0.0,0.0,0.0,0.0,0.0,1.0,1.0,1000.0,100000000.0,0.3
820,2,0.3066661666666667,0.11333333333333334,-0.49999999999999983,0.0,0.0,0.0,0.0,0.0,0.0,0.0,0.0,0.0,1.0,1.0,1000.0,100000000.0,0.3
821,2,0.3066661666666667,0.11666666666666667,-0.4999999999999999,0.0,0.0,0.0,0.0,0.0,0.0,0.0,0.0,0.0,1.0,1.0,1000.0,100000000.0,0.3
822,2,0.3066661666666667,0.12333333333333334,-0.49999999999999917,0.0,0.0,0.0,0.0,0.0,0.0,0.0,0.0,0.0,1.0,1.0,1000.0,100000000.0,0.3
823,2,0.3066661666666667,0.12666666666666665,-0.4999999999999991,0.0,0.0,0.0,0.0,0.0,0.0,0.0,0.0,0.0,1.0,1.0,1000.0,100000000.0,0.3
824,2,0.31333283333333334,0.05666666666666667,-0.4999999999999998,0.0,0.0,0.0,0.0,0.0,0.0,0.0,0.0,0.0,1.0,1.0,1000.0,100000000.0,0.3
825,2,0.3166661666666667,0.05333333333333333,-0.49999999999999983,0.0,0.0,0.0,0.0,0.0,0.0,0.0,0.0,0.0,1.0,1.0,1000.0,100000000.0,0.3
826,2,0.3166661666666667,0.05666666666666667,-0.4999999999999999,0.0,0.0,0.0,0.0,0.0,0.0,0.0,0.0,0.0,1.0,1.0,1000.0,100000000.0,0.3
827,2,0.31333283333333334,0.06333333333333332,-0.49999999999999906,0.0,4.782499183000674e-13,0.0,0.0,2.0496425070002888e-13,0.0,0.0,0.0,0.0,1.0,1.0,1000.0,100000000.0,0.3
828,2,0.31333283333333334,0.06666666666666667,-0.4999999999999991,0.0,0.0,0.0,0.0,0.0,0.0,0.0,0.0,0.0,1.0,1.0,1000.0,100000000.0,0.3
829,2,0.3166661666666667,0.06333333333333332,-0.4999999999999991,0.0,4.782499183000674e-13,0.0,0.0,2.0496425070002888e-13,0.0,0.0,0.0,0.0,1.0,1.0,1000.0,100000000.0,0.3
830,2,0.3166661666666667,0.06666666666666667,-0.4999999999999991,0.0,0.0,0.0,0.0,0.0,0.0,0.0,0.0,0.0,1.0,1.0,1000.0,100000000.0,0.3
831,2,0.31333283333333334,0.07333333333333333,-0.49999999999999983,0.0,0.0,0.0,0.0,0.0,0.0,0.0,0.0,0.0,1.0,1.0,1000.0,100000000.0,0.3
832,2,0.31333283333333334,0.07666666666666667,-0.4999999999999998,0.0,0.0,0.0,0.0,0.0,0.0,0.0,0.0,0.0,1.0,1.0,1000.0,100000000.0,0.3
833,2,0.3166661666666667,0.07333333333333333,-0.49999999999999983,0.0,0.0,0.0,0.0,0.0,0.0,0.0,0.0,0.0,1.0,1.0,1000.0,100000000.0,0.3
834,2,0.3166661666666667,0.07666666666666667,-0.4999999999999999,0.0,0.0,0.0,0.0,0.0,0.0,0.0,0.0,0.0,1.0,1.0,1000.0,100000000.0,0.3
835,2,0.31333283333333334,0.08333333333333334,-0.4999999999999998,0.0,0.0,0.0,0.0,0.0,0.0,0.0,0.0,0.0,1.0,1.0,1000.0,100000000.0,0.3
836,2,0.31333283333333334,0.08666666666666666,-0.4999999999999998,0.0,0.0,0.0,0.0,0.0,0.0,0.0,0.0,0.0,1.0,1.0,1000.0,100000000.0,0.3
837,2,0.3166661666666667,0.08333333333333334,-0.49999999999999983,0.0,0.0,0.0,0.0,0.0,0.0,0.0,0.0,0.0,1.0,1.0,1000.0,100000000.0,0.3
838,2,0.3166661666666667,0.08666666666666666,-0.4999999999999998,0.0,0.0,0.0,0.0,0.0,0.0,0.0,0.0,0.0,1.0,1.0,1000.0,100000000.0,0.3
839,2,0.31333283333333334,0.09333333333333334,-0.4999999999999991,0.0,0.0,0.0,0.0,0.0,0.0,0.0,0.0,0.0,1.0,1.0,1000.0,100000000.0,0.3
840,2,0.31333283333333334,0.09666666666666666,-0.4999999999999991,0.0,0.0,0.0,0.0,0.0,0.0,0.0,0.0,0.0,1.0,1.0,1000.0,100000000.0,0.3
841,2,0.3166661666666667,0.09333333333333334,-0.49999999999999917,0.0,0.0,0.0,0.0,0.0,0.0,0.0,0.0,0.0,1.0,1.0,1000.0,100000000.0,0.3
842,2,0.3166661666666667,0.09666666666666666,-0.4999999999999991,0.0,0.0,0.0,0.0,0.0,0.0,0.0,0.0,0.0,1.0,1.0,1000.0,100000000.0,0.3
843,2,0.31333283333333334,0.10333333333333335,-0.4999999999999998,0.0,0.0,0.0,0.0,0.0,0.0,0.0,0.0,0.0,1.0,1.0,1000.0,100000000.0,0.3
844,2,0.31333283333333334,0.10666666666666666,-0.4999999999999998,0.0,0.0,0.0,0.0,0.0,0.0,0.0,0.0,0.0,1.0,1.0,1000.0,100000000.0,0.3
845,2,0.3166661666666667,0.10333333333333335,-0.49999999999999983,0.0,0.0,0.0,0.0,0.0,0.0,0.0,0.0,0.0,1.0,1.0,1000.0,100000000.0,0.3
846,2,0.3166661666666667,0.10666666666666666,-0.4999999999999998,0.0,0.0,0.0,0.0,0.0,0.0,0.0,0.0,0.0,1.0,1.0,1000.0,100000000.0,0.3
847,2,0.31333283333333334,0.11333333333333334,-0.4999999999999998,0.0,0.0,0.0,0.0,0.0,0.0,0.0,0.0,0.0,1.0,1.0,1000.0,100000000.0,0.3
848,2,0.31333283333333334,0.11666666666666667,-0.4999999999999998,0.0,0.0,0.0,0.0,0.0,0.0,0.0,0.0,0.0,1.0,1.0,1000.0,100000000.0,0.3
849,2,0.3166661666666667,0.11333333333333334,-0.49999999999999983,0.0,0.0,0.0,0.0,0.0,0.0,0.0,0.0,0.0,1.0,1.0,1000.0,100000000.0,0.3
850,2,0.3166661666666667,0.11666666666666667,-0.4999999999999999,0.0,0.0,0.0,0.0,0.0,0.0,0.0,0.0,0.0,1.0,1.0,1000.0,100000000.0,0.3
851,2,0.31333283333333334,0.12333333333333334,-0.4999999999999991,0.0,0.0,0.0,0.0,0.0,0.0,0.0,0.0,0.0,1.0,1.0,1000.0,100000000.0,0.3
852,2,0.31333283333333334,0.12666666666666665,-0.4999999999999991,0.0,0.0,0.0,0.0,0.0,0.0,0.0,0.0,0.0,1.0,1.0,1000.0,100000000.0,0.3
853,2,0.3166661666666667,0.12333333333333334,-0.49999999999999917,0.0,0.0,0.0,0.0,0.0,0.0,0.0,0.0,0.0,1.0,1.0,1000.0,100000000.0,0.3
854,2,0.3166661666666667,0.12666666666666665,-0.4999999999999991,0.0,0.0,0.0,0.0,0.0,0.0,0.0,0.0,0.0,1.0,1.0,1000.0,100000000.0,0.3
855,2,0.31333283333333334,0.13333333333333333,-0.49999999999999906,0.0,4.782499183000674e-13,0.0,0.0,2.0496425070002888e-13,0.0,0.0,0.0,0.0,1.0,1.0,1000.0,100000000.0,0.3
856,2,0.31333283333333334,0.13666666666666666,-0.4999999999999991,0.0,0.0,0.0,0.0,0.0,0.0,0.0,0.0,0.0,1.0,1.0,1000.0,100000000.0,0.3
857,2,0.3166661666666667,0.13333333333333333,-0.4999999999999991,0.0,4.782499183000674e-13,0.0,0.0,2.0496425070002888e-13,0.0,0.0,0.0,0.0,1.0,1.0,1000.0,100000000.0,0.3
858,2,0.3166661666666667,0.13666666666666666,-0.4999999999999991,0.0,0.0,0.0,0.0,0.0,0.0,0.0,0.0,0.0,1.0,1.0,1000.0,100000000.0,0.3
859,2,0.31333283333333334,0.14333333333333334,-0.5000000000000006,0.0,0.0,0.0,0.0,0.0,0.0,0.0,0.0,0.0,1.0,1.0,1000.0,100000000.0,0.3
860,2,0.3166661666666667,0.14333333333333334,-0.5000000000000004,0.0,0.0,0.0,0.0,0.0,0.0,0.0,0.0,0.0,1.0,1.0,1000.0,100000000.0,0.3
861,2,0.3166661666666667,0.14666666666666667,-0.5000000000000006,0.0,0.0,0.0,0.0,0.0,0.0,0.0,0.0,0.0,1.0,1.0,1000.0,100000000.0,0.3
862,2,0.32333283333333335,0.04666666666666667,-0.49999999999999944,0.0,0.0,0.0,0.0,0.0,0.0,0.0,0.0,0.0,1.0,1.0,1000.0,100000000.0,0.3
863,2,0.32666616666666665,0.04333333333333333,-0.49999999999999944,0.0,-4.782499183000674e-13,0.0,0.0,-2.0496425070002888e-13,0.0,0.0,0.0,0.0,1.0,1.0,1000.0,100000000.0,0.3
864,2,0.32666616666666665,0.04666666666666667,-0.4999999999999995,0.0,0.0,0.0,0.0,0.0,0.0,0.0,0.0,0.0,1.0,1.0,1000.0,100000000.0,0.3
865,2,0.32333283333333335,0.05333333333333333,-0.49999999999999983,0.0,0.0,0.0,0.0,0.0,0.0,0.0,0.0,0.0,1.0,1.0,1000.0,100000000.0,0.3
866,2,0.32333283333333335,0.05666666666666667,-0.4999999999999998,0.0,0.0,0.0,0.0,0.0,0.0,0.0,0.0,0.0,1.0,1.0,1000.0,100000000.0,0.3
867,2,0.32666616666666665,0.05333333333333333,-0.4999999999999998,0.0,0.0,0.0,0.0,0.0,0.0,0.0,0.0,0.0,1.0,1.0,1000.0,100000000.0,0.3
868,2,0.32666616666666665,0.05666666666666667,-0.49999999999999983,0.0,0.0,0.0,0.0,0.0,0.0,0.0,0.0,0.0,1.0,1.0,1000.0,100000000.0,0.3
869,2,0.32333283333333335,0.06333333333333332,-0.49999999999999906,0.0,4.782499183000674e-13,0.0,0.0,2.0496425070002888e-13,0.0,0.0,0.0,0.0,1.0,1.0,1000.0,100000000.0,0.3
870,2,0.32333283333333335,0.06666666666666667,-0.4999999999999991,0.0,0.0,0.0,0.0,0.0,0.0,0.0,0.0,0.0,1.0,1.0,1000.0,100000000.0,0.3
871,2,0.32666616666666665,0.06333333333333332,-0.4999999999999991,0.0,4.782499183000674e-13,0.0,0.0,2.0496425070002888e-13,0.0,0.0,0.0,0.0,1.0,1.0,1000.0,100000000.0,0.3
872,2,0.32666616666666665,0.06666666666666667,-0.4999999999999991,0.0,0.0,0.0,0.0,0.0,0.0,0.0,0.0,0.0,1.0,1.0,1000.0,100000000.0,0.3
873,2,0.32333283333333335,0.07333333333333333,-0.49999999999999983,0.0,0.0,0.0,0.0,0.0,0.0,0.0,0.0,0.0,1.0,1.0,1000.0,100000000.0,0.3
874,2,0.32333283333333335,0.07666666666666667,-0.4999999999999998,0.0,0.0,0.0,0.0,0.0,0.0,0.0,0.0,0.0,1.0,1.0,1000.0,100000000.0,0.3
875,2,0.32666616666666665,0.07333333333333333,-0.4999999999999998,0.0,0.0,0.0,0.0,0.0,0.0,0.0,0.0,0.0,1.0,1.0,1000.0,100000000.0,0.3
876,2,0.32666616666666665,0.07666666666666667,-0.49999999999999983,0.0,0.0,0.0,0.0,0.0,0.0,0.0,0.0,0.0,1.0,1.0,1000.0,100000000.0,0.3
877,2,0.32333283333333335,0.08333333333333334,-0.4999999999999998,0.0,0.0,0.0,0.0,0.0,0.0,0.0,0.0,0.0,1.0,1.0,1000.0,100000000.0,0.3
878,2,0.32333283333333335,0.08666666666666666,-0.4999999999999998,0.0,0.0,0.0,0.0,0.0,0.0,0.0,0.0,0.0,1.0,1.0,1000.0,100000000.0,0.3
879,2,0.32666616666666665,0.08333333333333334,-0.4999999999999998,0.0,0.0,0.0,0.0,0.0,0.0,0.0,0.0,0.0,1.0,1.0,1000.0,100000000.0,0.3
880,2,0.32666616666666665,0.08666666666666666,-0.4999999999999998,0.0,0.0,0.0,0.0,0.0,0.0,0.0,0.0,0.0,1.0,1.0,1000.0,100000000.0,0.3
881,2,0.32333283333333335,0.09333333333333334,-0.4999999999999991,0.0,0.0,0.0,0.0,0.0,0.0,0.0,0.0,0.0,1.0,1.0,1000.0,100000000.0,0.3
882,2,0.32333283333333335,0.09666666666666666,-0.4999999999999991,0.0,0.0,0.0,0.0,0.0,0.0,0.0,0.0,0.0,1.0,1.0,1000.0,100000000.0,0.3
883,2,0.32666616666666665,0.09333333333333334,-0.4999999999999991,0.0,0.0,0.0,0.0,0.0,0.0,0.0,0.0,0.0,1.0,1.0,1000.0,100000000.0,0.3
884,2,0.32666616666666665,0.09666666666666666,-0.4999999999999991,0.0,0.0,0.0,0.0,0.0,0.0,0.0,0.0,0.0,1.0,1.0,1000.0,100000000.0,0.3
885,2,0.32333283333333335,0.10333333333333335,-0.4999999999999998,0.0,0.0,0.0,0.0,0.0,0.0,0.0,0.0,0.0,1.0,1.0,1000.0,100000000.0,0.3
886,2,0.32333283333333335,0.10666666666666666,-0.4999999999999998,0.0,0.0,0.0,0.0,0.0,0.0,0.0,0.0,0.0,1.0,1.0,1000.0,100000000.0,0.3
887,2,0.32666616666666665,0.10333333333333335,-0.4999999999999998,0.0,0.0,0.0,0.0,0.0,0.0,0.0,0.0,0.0,1.0,1.0,1000.0,100000000.0,0.3
888,2,0.32666616666666665,0.10666666666666666,-0.4999999999999998,0.0,0.0,0.0,0.0,0.0,0.0,0.0,0.0,0.0,1.0,1.0,1000.0,100000000.0,0.3
889,2,0.32333283333333335,0.11333333333333334,-0.4999999999999998,0.0,0.0,0.0,0.0,0.0,0.0,0.0,0.0,0.0,1.0,1.0,1000.0,100000000.0,0.3
890,2,0.32333283333333335,0.11666666666666667,-0.4999999999999998,0.0,0.0,0.0,0.0,0.0,0.0,0.0,0.0,0.0,1.0,1.0,1000.0,100000000.0,0.3
891,2,0.32666616666666665,0.11333333333333334,-0.4999999999999998,0.0,0.0,0.0,0.0,0.0,0.0,0.0,0.0,0.0,1.0,1.0,1000.0,100000000.0,0.3
892,2,0.32666616666666665,0.11666666666666667,-0.49999999999999983,0.0,0.0,0.0,0.0,0.0,0.0,0.0,0.0,0.0,1.0,1.0,1000.0,100000000.0,0.3
893,2,0.32333283333333335,0.12333333333333334,-0.4999999999999991,0.0,0.0,0.0,0.0,0.0,0.0,0.0,0.0,0.0,1.0,1.0,1000.0,100000000.0,0.3
894,2,0.32333283333333335,0.12666666666666665,-0.4999999999999991,0.0,0.0,0.0,0.0,0.0,0.0,0.0,0.0,0.0,1.0,1.0,1000.0,100000000.0,0.3
895,2,0.32666616666666665,0.12333333333333334,-0.4999999999999991,0.0,0.0,0.0,0.0,0.0,0.0,0.0,0.0,0.0,1.0,1.0,1000.0,100000000.0,0.3
896,2,0.32666616666666665,0.12666666666666665,-0.4999999999999991,0.0,0.0,0.0,0.0,0.0,0.0,0.0,0.0,0.0,1.0,1.0,1000.0,100000000.0,0.3
897,2,0.32333283333333335,0.13333333333333333,-0.49999999999999906,0.0,4.782499183000674e-13,0.0,0.0,2.0496425070002888e-13,0.0,0.0,0.0,0.0,1.0,1.0,1000.0,100000000.0,0.3
898,2,0.32333283333333335,0.13666666666666666,-0.4999999999999991,0.0,0.0,0.0,0.0,0.0,0.0,0.0,0.0,0.0,1.0,1.0,1000.0,100000000.0,0.3
899,2,0.32666616666666665,0.13333333333333333,-0.4999999999999991,0.0,4.782499183000674e-13,0.0,0.0,2.0496425070002888e-13,0.0,0.0,0.0,0.0,1.0,1.0,1000.0,100000000.0,0.3
900,2,0.32666616666666665,0.13666666666666666,-0.4999999999999991,0.0,0.0,0.0,0.0,0.0,0.0,0.0,0.0,0.0,1.0,1.0,1000.0,100000000.0,0.3
901,2,0.32333283333333335,0.14333333333333334,-0.5000000000000006,0.0,0.0,0.0,0.0,0.0,0.0,0.0,0.0,0.0,1.0,1.0,1000.0,100000000.0,0.3
902,2,0.32333283333333335,0.14666666666666667,-0.5000000000000004,0.0,0.0,0.0,0.0,0.0,0.0,0.0,0.0,0.0,1.0,1.0,1000.0,100000000.0,0.3
903,2,0.32666616666666665,0.14333333333333334,-0.5000000000000004,0.0,0.0,0.0,0.0,0.0,0.0,0.0,0.0,0.0,1.0,1.0,1000.0,100000000.0,0.3
904,2,0.32666616666666665,0.14666666666666667,-0.5000000000000004,0.0,0.0,0.0,0.0,0.0,0.0,0.0,0.0,0.0,1.0,1.0,1000.0,100000000.0,0.3
905,2,0.32333283333333335,0.15333333333333335,-0.4999999999999991,0.0,0.0,0.0,0.0,0.0,0.0,0.0,0.0,0.0,1.0,1.0,1000.0,100000000.0,0.3
906,2,0.32666616666666665,0.15333333333333335,-0.4999999999999991,0.0,0.0,0.0,0.0,0.0,0.0,0.0,0.0,0.0,1.0,1.0,1000.0,100000000.0,0.3
907,2,0.32666616666666665,0.15666666666666668,-0.49999999999999906,0.0,9.564998366001349e-13,0.0,0.0,4.0992850140005776e-13,0.0,0.0,0.0,0.0,1.0,1.0,1000.0,100000000.0,0.3
908,2,0.33333283333333336,0.03666666666666667,-0.49999999999999944,0.0,0.0,0.0,0.0,0.0,0.0,0.0,0.0,0.0,1.0,1.0,1000.0,100000000.0,0.3
909,2,0.33666616666666666,0.03333333333333333,-0.49999999999999944,0.0,0.0,0.0,0.0,0.0,0.0,0.0,0.0,0.0,1.0,1.0,1000.0,100000000.0,0.3
910,2,0.33666616666666666,0.03666666666666667,-0.4999999999999995,0.0,0.0,0.0,0.0,0.0,0.0,0.0,0.0,0.0,1.0,1.0,1000.0,100000000.0,0.3
911,2,0.33333283333333336,0.04333333333333333,-0.4999999999999994,0.0,-4.782499183000674e-13,0.0,0.0,-2.0496425070002888e-13,0.0,0.0,0.0,0.0,1.0,1.0,1000.0,100000000.0,0.3
912,2,0.33333283333333336,0.04666666666666667,-0.49999999999999944,0.0,0.0,0.0,0.0,0.0,0.0,0.0,0.0,0.0,1.0,1.0,1000.0,100000000.0,0.3
913,2,0.33666616666666666,0.04333333333333333,-0.49999999999999944,0.0,-4.782499183000674e-13,0.0,0.0,-2.0496425070002888e-13,0.0,0.0,0.0,0.0,1.0,1.0,1000.0,100000000.0,0.3
914,2,0.33666616666666666,0.04666666666666667,-0.4999999999999995,0.0,0.0,0.0,0.0,0.0,0.0,0.0,0.0,0.0,1.0,1.0,1000.0,100000000.0,0.3
915,2,0.33333283333333336,0.05333333333333333,-0.49999999999999983,0.0,0.0,0.0,0.0,0.0,0.0,0.0,0.0,0.0,1.0,1.0,1000.0,100000000.0,0.3
916,2,0.33333283333333336,0.05666666666666667,-0.4999999999999998,0.0,0.0,0.0,0.0,0.0,0.0,0.0,0.0,0.0,1.0,1.0,1000.0,100000000.0,0.3
917,2,0.33666616666666666,0.05333333333333333,-0.4999999999999998,0.0,0.0,0.0,0.0,0.0,0.0,0.0,0.0,0.0,1.0,1.0,1000.0,100000000.0,0.3
918,2,0.33666616666666666,0.05666666666666667,-0.49999999999999983,0.0,0.0,0.0,0.0,0.0,0.0,0.0,0.0,0.0,1.0,1.0,1000.0,100000000.0,0.3
919,2,0.33333283333333336,0.06333333333333332,-0.49999999999999906,0.0,4.782499183000674e-13,0.0,0.0,2.0496425070002888e-13,0.0,0.0,0.0,0.0,1.0,1.0,1000.0,100000000.0,0.3
920,2,0.33333283333333336,0.06666666666666667,-0.4999999999999991,0.0,0.0,0.0,0.0,0.0,0.0,0.0,0.0,0.0,1.0,1.0,1000.0,100000000.0,0.3
921,2,0.33666616666666666,0.06333333333333332,-0.4999999999999991,0.0,4.782499183000674e-13,0.0,0.0,2.0496425070002888e-13,0.0,0.0,0.0,0.0,1.0,1.0,1000.0,100000000.0,0.3
922,2,0.33666616666666666,0.06666666666666667,-0.4999999999999991,0.0,0.0,0.0,0.0,0.0,0.0,0.0,0.0,0.0,1.0,1.0,1000.0,100000000.0,0.3
923,2,0.33333283333333336,0.07333333333333333,-0.49999999999999983,0.0,0.0,0.0,0.0,0.0,0.0,0.0,0.0,0.0,1.0,1.0,1000.0,100000000.0,0.3
924,2,0.33333283333333336,0.07666666666666667,-0.4999999999999998,0.0,0.0,0.0,0.0,0.0,0.0,0.0,0.0,0.0,1.0,1.0,1000.0,100000000.0,0.3
925,2,0.33666616666666666,0.07333333333333333,-0.4999999999999998,0.0,0.0,0.0,0.0,0.0,0.0,0.0,0.0,0.0,1.0,1.0,1000.0,100000000.0,0.3
926,2,0.33666616666666666,0.07666666666666667,-0.49999999999999983,0.0,0.0,0.0,0.0,0.0,0.0,0.0,0.0,0.0,1.0,1.0,1000.0,100000000.0,0.3
927,2,0.33333283333333336,0.08333333333333334,-0.4999999999999998,0.0,0.0,0.0,0.0,0.0,0.0,0.0,0.0,0.0,1.0,1.0,1000.0,100000000.0,0.3
928,2,0.33333283333333336,0.08666666666666666,-0.4999999999999998,0.0,0.0,0.0,0.0,0.0,0.0,0.0,0.0,0.0,1.0,1.0,1000.0,100000000.0,0.3
929,2,0.33666616666666666,0.08333333333333334,-0.4999999999999998,0.0,0.0,0.0,0.0,0.0,0.0,0.0,0.0,0.0,1.0,1.0,1000.0,100000000.0,0.3
930,2,0.33666616666666666,0.08666666666666666,-0.4999999999999998,0.0,0.0,0.0,0.0,0.0,0.0,0.0,0.0,0.0,1.0,1.0,1000.0,100000000.0,0.3
931,2,0.33333283333333336,0.09333333333333334,-0.4999999999999991,0.0,0.0,0.0,0.0,0.0,0.0,0.0,0.0,0.0,1.0,1.0,1000.0,100000000.0,0.3
932,2,0.33333283333333336,0.09666666666666666,-0.4999999999999991,0.0,0.0,0.0,0.0,0.0,0.0,0.0,0.0,0.0,1.0,1.0,1000.0,100000000.0,0.3
933,2,0.33666616666666666,0.09333333333333334,-0.4999999999999991,0.0,0.0,0.0,0.0,0.0,0.0,0.0,0.0,0.0,1.0,1.0,1000.0,100000000.0,0.3
934,2,0.33666616666666666,0.09666666666666666,-0.4999999999999991,0.0,0.0,0.0,0.0,0.0,0.0,0.0,0.0,0.0,1.0,1.0,1000.0,100000000.0,0.3
935,2,0.33333283333333336,0.10333333333333335,-0.4999999999999998,0.0,0.0,0.0,0.0,0.0,0.0,0.0,0.0,0.0,1.0,1.0,1000.0,100000000.0,0.3
936,2,0.33333283333333336,0.10666666666666666,-0.4999999999999998,0.0,0.0,0.0,0.0,0.0,0.0,0.0,0.0,0.0,1.0,1.0,1000.0,100000000.0,0.3
937,2,0.33666616666666666,0.10333333333333335,-0.4999999999999998,0.0,0.0,0.0,0.0,0.0,0.0,0.0,0.0,0.0,1.0,1.0,1000.0,100000000.0,0.3
938,2,0.33666616666666666,0.10666666666666666,-0.4999999999999998,0.0,0.0,0.0,0.0,0.0,0.0,0.0,0.0,0.0,1.0,1.0,1000.0,100000000.0,0.3
939,2,0.33333283333333336,0.11333333333333334,-0.4999999999999998,0.0,0.0,0.0,0.0,0.0,0.0,0.0,0.0,0.0,1.0,1.0,1000.0,100000000.0,0.3
940,2,0.33333283333333336,0.11666666666666667,-0.4999999999999998,0.0,0.0,0.0,0.0,0.0,0.0,0.0,0.0,0.0,1.0,1.0,1000.0,100000000.0,0.3
941,2,0.33666616666666666,0.11333333333333334,-0.4999999999999998,0.0,0.0,0.0,0.0,0.0,0.0,0.0,0.0,0.0,1.0,1.0,1000.0,100000000.0,0.3
942,2,0.33666616666666666,0.11666666666666667,-0.49999999999999983,0.0,0.0,0.0,0.0,0.0,0.0,0.0,0.0,0.0,1.0,1.0,1000.0,100000000.0,0.3
943,2,0.33333283333333336,0.12333333333333334,-0.4999999999999991,0.0,0.0,0.0,0.0,0.0,0.0,0.0,0.0,0.0,1.0,1.0,1000.0,100000000.0,0.3
944,2,0.33333283333333336,0.12666666666666665,-0.4999999999999991,0.0,0.0,0.0,0.0,0.0,0.0,0.0,0.0,0.0,1.0,1.0,1000.0,100000000.0,0.3
945,2,0.33666616666666666,0.12333333333333334,-0.4999999999999991,0.0,0.0,0.0,0.0,0.0,0.0,0.0,0.0,0.0,1.0,1.0,1000.0,100000000.0,0.3
946,2,0.33666616666666666,0.12666666666666665,-0.4999999999999991,0.0,0.0,0.0,0.0,0.0,0.0,0.0,0.0,0.0,1.0,1.0,1000.0,100000000.0,0.3
947,2,0.33333283333333336,0.13333333333333333,-0.49999999999999906,0.0,4.782499183000674e-13,0.0,0.0,2.0496425070002888e-13,0.0,0.0,0.0,0.0,1.0,1.0,1000.0,100000000.0,0.3
948,2,0.33333283333333336,0.13666666666666666,-0.4999999999999991,0.0,0.0,0.0,0.0,0.0,0.0,0.0,0.0,0.0,1.0,1.0,1000.0,100000000.0,0.3
949,2,0.33666616666666666,0.13333333333333333,-0.4999999999999991,0.0,4.782499183000674e-13,0.0,0.0,2.0496425070002888e-13,0.0,0.0,0.0,0.0,1.0,1.0,1000.0,100000000.0,0.3
950,2,0.33666616666666666,0.13666666666666666,-0.4999999999999991,0.0,0.0,0.0,0.0,0.0,0.0,0.0,0.0,0.0,1.0,1.0,1000.0,100000000.0,0.3
951,2,0.33333283333333336,0.14333333333333334,-0.5000000000000006,0.0,0.0,0.0,0.0,0.0,0.0,0.0,0.0,0.0,1.0,1.0,1000.0,100000000.0,0.3
952,2,0.33333283333333336,0.14666666666666667,-0.5000000000000004,0.0,0.0,0.0,0.0,0.0,0.0,0.0,0.0,0.0,1.0,1.0,1000.0,100000000.0,0.3
953,2,0.33666616666666666,0.14333333333333334,-0.5000000000000004,0.0,0.0,0.0,0.0,0.0,0.0,0.0,0.0,0.0,1.0,1.0,1000.0,100000000.0,0.3
954,2,0.33666616666666666,0.14666666666666667,-0.5000000000000004,0.0,0.0,0.0,0.0,0.0,0.0,0.0,0.0,0.0,1.0,1.0,1000.0,100000000.0,0.3
955,2,0.33333283333333336,0.15333333333333335,-0.4999999999999991,0.0,0.0,0.0,0.0,0.0,0.0,0.0,0.0,0.0,1.0,1.0,1000.0,100000000.0,0.3
956,2,0.33333283333333336,0.15666666666666668,-0.4999999999999991,0.0,9.564998366001349e-13,0.0,0.0,4.0992850140005776e-13,0.0,0.0,0.0,0.0,1.0,1.0,1000.0,100000000.0,0.3
957,2,0.33666616666666666,0.15333333333333335,-0.4999999999999991,0.0,0.0,0.0,0.0,0.0,0.0,0.0,0.0,0.0,1.0,1.0,1000.0,100000000.0,0.3
958,2,0.33666616666666666,0.15666666666666668,-0.49999999999999906,0.0,9.564998366001349e-13,0.0,0.0,4.0992850140005776e-13,0.0,0.0,0.0,0.0,1.0,1.0,1000.0,100000000.0,0.3
959,2,0.33333283333333336,0.16333333333333333,-0.49999999999999906,0.0,4.782499183000674e-13,0.0,0.0,2.0496425070002888e-13,0.0,0.0,0.0,0.0,1.0,1.0,1000.0,100000000.0,0.3
960,2,0.33666616666666666,0.16333333333333333,-0.4999999999999991,0.0,4.782499183000674e-13,0.0,0.0,2.0496425070002888e-13,0.0,0.0,0.0,0.0,1.0,1.0,1000.0,100000000.0,0.3
961,2,0.33666616666666666,0.16666666666666669,-0.49999999999999906,0.0,9.564998366001349e-13,0.0,0.0,4.0992850140005776e-13,0.0,0.0,0.0,0.0,1.0,1.0,1000.0,100000000.0,0.3
962,2,0.34333283333333336,0.03333333333333333,-0.4999999999999995,0.0,0.0,0.0,0.0,0.0,0.0,0.0,0.0,0.0,1.0,1.0,1000.0,100000000.0,0.3
963,2,0.34333283333333336,0.03666666666666667,-0.49999999999999944,0.0,0.0,0.0,0.0,0.0,0.0,0.0,0.0,0.0,1.0,1.0,1000.0,100000000.0,0.3
964,2,0.3466661666666666,0.03333333333333333,-0.49999999999999956,0.0,0.0,0.0,0.0,0.0,0.0,0.0,0.0,0.0,1.0,1.0,1000.0,100000000.0,0.3
965,2,0.3466661666666666,0.03666666666666667,-0.49999999999999956,0.0,0.0,0.0,0.0,0.0,0.0,0.0,0.0,0.0,1.0,1.0,1000.0,100000000.0,0.3
966,2,0.34333283333333336,0.04333333333333333,-0.4999999999999994,0.0,-4.782499183000674e-13,0.0,0.0,-2.0496425070002888e-13,0.0,0.0,0.0,0.0,1.0,1.0,1000.0,100000000.0,0.3
967,2,0.34333283333333336,0.04666666666666667,-0.49999999999999944,0.0,0.0,0.0,0.0,0.0,0.0,0.0,0.0,0.0,1.0,1.0,1000.0,100000000.0,0.3
968,2,0.3466661666666666,0.04333333333333333,-0.4999999999999995,0.0,-4.782499183000674e-13,0.0,0.0,-2.0496425070002888e-13,0.0,0.0,0.0,0.0,1.0,1.0,1000.0,100000000.0,0.3
969,2,0.3466661666666666,0.04666666666666667,-0.49999999999999956,0.0,0.0,0.0,0.0,0.0,0.0,0.0,0.0,0.0,1.0,1.0,1000.0,100000000.0,0.3
970,2,0.34333283333333336,0.05333333333333333,-0.49999999999999983,0.0,0.0,0.0,0.0,0.0,0.0,0.0,0.0,0.0,1.0,1.0,1000.0,100000000.0,0.3
971,2,0.34333283333333336,0.05666666666666667,-0.4999999999999998,0.0,0.0,0.0,0.0,0.0,0.0,0.0,0.0,0.0,1.0,1.0,1000.0,100000000.0,0.3
972,2,0.3466661666666666,0.05333333333333333,-0.4999999999999999,0.0,0.0,0.0,0.0,0.0,0.0,0.0,0.0,0.0,1.0,1.0,1000.0,100000000.0,0.3
973,2,0.3466661666666666,0.05666666666666667,-0.4999999999999999,0.0,0.0,0.0,0.0,0.0,0.0,0.0,0.0,0.0,1.0,1.0,1000.0,100000000.0,0.3
974,2,0.34333283333333336,0.06333333333333332,-0.49999999999999906,0.0,4.782499183000674e-13,0.0,0.0,2.0496425070002888e-13,0.0,0.0,0.0,0.0,1.0,1.0,1000.0,100000000.0,0.3
975,2,0.34333283333333336,0.06666666666666667,-0.4999999999999991,0.0,0.0,0.0,0.0,0.0,0.0,0.0,0.0,0.0,1.0,1.0,1000.0,100000000.0,0.3
976,2,0.3466661666666666,0.06333333333333332,-0.49999999999999917,0.0,4.782499183000674e-13,0.0,0.0,2.0496425070002888e-13,0.0,0.0,0.0,0.0,1.0,1.0,1000.0,100000000.0,0.3
977,2,0.3466661666666666,0.06666666666666667,-0.49999999999999906,0.0,0.0,0.0,0.0,0.0,0.0,0.0,0.0,0.0,1.0,1.0,1000.0,100000000.0,0.3
978,2,0.34333283333333336,0.07333333333333333,-0.49999999999999983,0.0,0.0,0.0,0.0,0.0,0.0,0.0,0.0,0.0,1.0,1.0,1000.0,100000000.0,0.3
979,2,0.34333283333333336,0.07666666666666667,-0.4999999999999998,0.0,0.0,0.0,0.0,0.0,0.0,0.0,0.0,0.0,1.0,1.0,1000.0,100000000.0,0.3
980,2,0.3466661666666666,0.07333333333333333,-0.4999999999999999,0.0,0.0,0.0,0.0,0.0,0.0,0.0,0.0,0.0,1.0,1.0,1000.0,100000000.0,0.3
981,2,0.3466661666666666,0.07666666666666667,-0.4999999999999999,0.0,0.0,0.0,0.0,0.0,0.0,0.0,0.0,0.0,1.0,1.0,1000.0,100000000.0,0.3
982,2,0.34333283333333336,0.08333333333333334,-0.4999999999999998,0.0,0.0,0.0,0.0,0.0,0.0,0.0,0.0,0.0,1.0,1.0,1000.0,100000000.0,0.3
983,2,0.34333283333333336,0.08666666666666666,-0.4999999999999998,0.0,0.0,0.0,0.0,0.0,0.0,0.0,0.0,0.0,1.0,1.0,1000.0,100000000.0,0.3
984,2,0.3466661666666666,0.08333333333333334,-0.4999999999999998,0.0,0.0,0.0,0.0,0.0,0.0,0.0,0.0,0.0,1.0,1.0,1000.0,100000000.0,0.3
985,2,0.3466661666666666,0.08666666666666666,-0.4999999999999997,0.0,0.0,0.0,0.0,0.0,0.0,0.0,0.0,0.0,1.0,1.0,1000.0,100000000.0,0.3
986,2,0.34333283333333336,0.09333333333333334,-0.4999999999999991,0.0,0.0,0.0,0.0,0.0,0.0,0.0,0.0,0.0,1.0,1.0,1000.0,100000000.0,0.3
987,2,0.34333283333333336,0.09666666666666666,-0.4999999999999991,0.0,0.0,0.0,0.0,0.0,0.0,0.0,0.0,0.0,1.0,1.0,1000.0,100000000.0,0.3
988,2,0.3466661666666666,0.09333333333333334,-0.4999999999999991,0.0,0.0,0.0,0.0,0.0,0.0,0.0,0.0,0.0,1.0,1.0,1000.0,100000000.0,0.3
989,2,0.3466661666666666,0.09666666666666666,-0.49999999999999906,0.0,0.0,0.0,0.0,0.0,0.0,0.0,0.0,0.0,1.0,1.0,1000.0,100000000.0,0.3
990,2,0.34333283333333336,0.10333333333333335,-0.4999999999999998,0.0,0.0,0.0,0.0,0.0,0.0,0.0,0.0,0.0,1.0,1.0,1000.0,100000000.0,0.3
991,2,0.34333283333333336,0.10666666666666666,-0.4999999999999998,0.0,0.0,0.0,0.0,0.0,0.0,0.0,0.0,0.0,1.0,1.0,1000.0,100000000.0,0.3
992,2,0.3466661666666666,0.10333333333333335,-0.4999999999999998,0.0,0.0,0.0,0.0,0.0,0.0,0.0,0.0,0.0,1.0,1.0,1000.0,100000000.0,0.3
993,2,0.3466661666666666,0.10666666666666666,-0.4999999999999997,0.0,0.0,0.0,0.0,0.0,0.0,0.0,0.0,0.0,1.0,1.0,1000.0,100000000.0,0.3
994,2,0.34333283333333336,0.11333333333333334,-0.4999999999999998,0.0,0.0,0.0,0.0,0.0,0.0,0.0,0.0,0.0,1.0,1.0,1000.0,100000000.0,0.3
995,2,0.34333283333333336,0.11666666666666667,-0.4999999999999998,0.0,0.0,0.0,0.0,0.0,0.0,0.0,0.0,0.0,1.0,1.0,1000.0,100000000.0,0.3
996,2,0.3466661666666666,0.11333333333333334,-0.4999999999999998,0.0,0.0,0.0,0.0,0.0,0.0,0.0,0.0,0.0,1.0,1.0,1000.0,100000000.0,0.3
997,2,0.3466661666666666,0.11666666666666667,-0.4999999999999999,0.0,0.0,0.0,0.0,0.0,0.0,0.0,0.0,0.0,1.0,1.0,1000.0,100000000.0,0.3
998,2,0.34333283333333336,0.12333333333333334,-0.4999999999999991,0.0,0.0,0.0,0.0,0.0,0.0,0.0,0.0,0.0,1.0,1.0,1000.0,100000000.0,0.3
999,2,0.34333283333333336,0.12666666666666665,-0.4999999999999991,0.0,0.0,0.0,0.0,0.0,0.0,0.0,0.0,0.0,1.0,1.0,1000.0,100000000.0,0.3
1000,2,0.3466661666666666,0.12333333333333334,-0.4999999999999991,0.0,0.0,0.0,0.0,0.0,0.0,0.0,0.0,0.0,1.0,1.0,1000.0,100000000.0,0.3
1001,2,0.3466661666666666,0.12666666666666665,-0.49999999999999906,0.0,0.0,0.0,0.0,0.0,0.0,0.0,0.0,0.0,1.0,1.0,1000.0,100000000.0,0.3
1002,2,0.34333283333333336,0.13333333333333333,-0.49999999999999906,0.0,4.782499183000674e-13,0.0,0.0,2.0496425070002888e-13,0.0,0.0,0.0,0.0,1.0,1.0,1000.0,100000000.0,0.3
1003,2,0.34333283333333336,0.13666666666666666,-0.4999999999999991,0.0,0.0,0.0,0.0,0.0,0.0,0.0,0.0,0.0,1.0,1.0,1000.0,100000000.0,0.3
1004,2,0.3466661666666666,0.13333333333333333,-0.49999999999999917,0.0,4.782499183000674e-13,0.0,0.0,2.0496425070002888e-13,0.0,0.0,0.0,0.0,1.0,1.0,1000.0,100000000.0,0.3
1005,2,0.3466661666666666,0.13666666666666666,-0.49999999999999906,0.0,0.0,0.0,0.0,0.0,0.0,0.0,0.0,0.0,1.0,1.0,1000.0,100000000.0,0.3
1006,2,0.34333283333333336,0.14333333333333334,-0.5000000000000006,0.0,0.0,0.0,0.0,0.0,0.0,0.0,0.0,0.0,1.0,1.0,1000.0,100000000.0,0.3
1007,2,0.34333283333333336,0.14666666666666667,-0.5000000000000004,0.0,0.0,0.0,0.0,0.0,0.0,0.0,0.0,0.0,1.0,1.0,1000.0,100000000.0,0.3
1008,2,0.3466661666666666,0.14333333333333334,-0.5000000000000006,0.0,0.0,0.0,0.0,0.0,0.0,0.0,0.0,0.0,1.0,1.0,1000.0,100000000.0,0.3
1009,2,0.3466661666666666,0.14666666666666667,-0.5000000000000006,0.0,0.0,0.0,0.0,0.0,0.0,0.0,0.0,0.0,1.0,1.0,1000.0,100000000.0,0.3
1010,2,0.34333283333333336,0.15333333333333335,-0.4999999999999991,0.0,0.0,0.0,0.0,0.0,0.0,0.0,0.0,0.0,1.0,1.0,1000.0,100000000.0,0.3
1011,2,0.34333283333333336,0.15666666666666668,-0.4999999999999991,0.0,9.564998366001349e-13,0.0,0.0,4.0992850140005776e-13,0.0,0.0,0.0,0.0,1.0,1.0,1000.0,100000000.0,0.3
1012,2,0.3466661666666666,0.15333333333333335,-0.4999999999999991,0.0,0.0,0.0,0.0,0.0,0.0,0.0,0.0,0.0,1.0,1.0,1000.0,100000000.0,0.3
1013,2,0.3466661666666666,0.15666666666666668,-0.4999999999999991,0.0,9.564998366001349e-13,0.0,0.0,4.0992850140005776e-13,0.0,0.0,0.0,0.0,1.0,1.0,1000.0,100000000.0,0.3
1014,2,0.34333283333333336,0.16333333333333333,-0.49999999999999906,0.0,4.782499183000674e-13,0.0,0.0,2.0496425070002888e-13,0.0,0.0,0.0,0.0,1.0,1.0,1000.0,100000000.0,0.3
1015,2,0.34333283333333336,0.16666666666666669,-0.4999999999999991,0.0,9.564998366001349e-13,0.0,0.0,4.0992850140005776e-13,0.0,0.0,0.0,0.0,1.0,1.0,1000.0,100000000.0,0.3
1016,2,0.3466661666666666,0.16333333333333333,-0.49999999999999917,0.0,4.782499183000674e-13,0.0,0.0,2.0496425070002888e-13,0.0,0.0,0.0,0.0,1.0,1.0,1000.0,100000000.0,0.3
1017,2,0.3466661666666666,0.16666666666666669,-0.4999999999999991,0.0,9.564998366001349e-13,0.0,0.0,4.0992850140005776e-13,0.0,0.0,0.0,0.0,1.0,1.0,1000.0,100000000.0,0.3
1018,2,0.3533328333333334,0.026666666666666665,-0.5000000000000024,0.0,0.0,0.0,0.0,0.0,0.0,0.0,0.0,0.0,1.0,1.0,1000.0,100000000.0,0.3
1019,2,0.3566661666666666,0.026666666666666665,-0.5000000000000024,0.0,0.0,0.0,0.0,0.0,0.0,0.0,0.0,0.0,1.0,1.0,1000.0,100000000.0,0.3
1020,2,0.3533328333333334,0.03333333333333333,-0.5000000000000022,0.0,0.0,0.0,0.0,0.0,0.0,0.0,0.0,0.0,1.0,1.0,1000.0,100000000.0,0.3
1021,2,0.3533328333333334,0.03666666666666667,-0.5000000000000022,0.0,0.0,0.0,0.0,0.0,0.0,0.0,0.0,0.0,1.0,1.0,1000.0,100000000.0,0.3
1022,2,0.3566661666666666,0.03333333333333333,-0.5000000000000023,0.0,0.0,0.0,0.0,0.0,0.0,0.0,0.0,0.0,1.0,1.0,1000.0,100000000.0,0.3
1023,2,0.3566661666666666,0.03666666666666667,-0.5000000000000022,0.0,0.0,0.0,0.0,0.0,0.0,0.0,0.0,0.0,1.0,1.0,1000.0,100000000.0,0.3
1024,2,0.3533328333333334,0.04333333333333333,-0.5000000000000022,0.0,-4.782499183000674e-13,0.0,0.0,-2.0496425070002888e-13,0.0,0.0,0.0,0.0,1.0,1.0,1000.0,100000000.0,0.3
1025,2,0.3533328333333334,0.04666666666666667,-0.5000000000000022,0.0,0.0,0.0,0.0,0.0,0.0,0.0,0.0,0.0,1.0,1.0,1000.0,100000000.0,0.3
1026,2,0.3566661666666666,0.04333333333333333,-0.5000000000000022,0.0,-4.782499183000674e-13,0.0,0.0,-2.0496425070002888e-13,0.0,0.0,0.0,0.0,1.0,1.0,1000.0,100000000.0,0.3
1027,2,0.3566661666666666,0.04666666666666667,-0.5000000000000022,0.0,0.0,0.0,0.0,0.0,0.0,0.0,0.0,0.0,1.0,1.0,1000.0,100000000.0,0.3
1028,2,0.3533328333333334,0.05333333333333333,-0.5000000000000026,0.0,0.0,0.0,0.0,0.0,0.0,0.0,0.0,0.0,1.0,1.0,1000.0,100000000.0,0.3
1029,2,0.3533328333333334,0.05666666666666667,-0.5000000000000027,0.0,0.0,0.0,0.0,0.0,0.0,0.0,0.0,0.0,1.0,1.0,1000.0,100000000.0,0.3
1030,2,0.3566661666666666,0.05333333333333333,-0.5000000000000027,0.0,0.0,0.0,0.0,0.0,0.0,0.0,0.0,0.0,1.0,1.0,1000.0,100000000.0,0.3
1031,2,0.3566661666666666,0.05666666666666667,-0.5000000000000027,0.0,0.0,0.0,0.0,0.0,0.0,0.0,0.0,0.0,1.0,1.0,1000.0,100000000.0,0.3
1032,2,0.3533328333333334,0.06333333333333332,-0.5000000000000019,0.0,4.782499183000674e-13,0.0,0.0,2.0496425070002888e-13,0.0,0.0,0.0,0.0,1.0,1.0,1000.0,100000000.0,0.3
1033,2,0.3533328333333334,0.06666666666666667,-0.5000000000000019,0.0,0.0,0.0,0.0,0.0,0.0,0.0,0.0,0.0,1.0,1.0,1000.0,100000000.0,0.3
1034,2,0.3566661666666666,0.06333333333333332,-0.5000000000000019,0.0,4.782499183000674e-13,0.0,0.0,2.0496425070002888e-13,0.0,0.0,0.0,0.0,1.0,1.0,1000.0,100000000.0,0.3
1035,2,0.3566661666666666,0.06666666666666667,-0.5000000000000019,0.0,0.0,0.0,0.0,0.0,0.0,0.0,0.0,0.0,1.0,1.0,1000.0,100000000.0,0.3
1036,2,0.3533328333333334,0.07333333333333333,-0.5000000000000026,0.0,0.0,0.0,0.0,0.0,0.0,0.0,0.0,0.0,1.0,1.0,1000.0,100000000.0,0.3
1037,2,0.3533328333333334,0.07666666666666667,-0.5000000000000027,0.0,0.0,0.0,0.0,0.0,0.0,0.0,0.0,0.0,1.0,1.0,1000.0,100000000.0,0.3
1038,2,0.3566661666666666,0.07333333333333333,-0.5000000000000027,0.0,0.0,0.0,0.0,0.0,0.0,0.0,0.0,0.0,1.0,1.0,1000.0,100000000.0,0.3
1039,2,0.3566661666666666,0.07666666666666667,-0.5000000000000027,0.0,0.0,0.0,0.0,0.0,0.0,0.0,0.0,0.0,1.0,1.0,1000.0,100000000.0,0.3
1040,2,0.3533328333333334,0.08333333333333334,-0.5000000000000026,0.0,0.0,0.0,0.0,0.0,0.0,0.0,0.0,0.0,1.0,1.0,1000.0,100000000.0,0.3
1041,2,0.3533328333333334,0.08666666666666666,-0.5000000000000026,0.0,0.0,0.0,0.0,0.0,0.0,0.0,0.0,0.0,1.0,1.0,1000.0,100000000.0,0.3
1042,2,0.3566661666666666,0.08333333333333334,-0.5000000000000026,0.0,0.0,0.0,0.0,0.0,0.0,0.0,0.0,0.0,1.0,1.0,1000.0,100000000.0,0.3
1043,2,0.3566661666666666,0.08666666666666666,-0.5000000000000026,0.0,0.0,0.0,0.0,0.0,0.0,0.0,0.0,0.0,1.0,1.0,1000.0,100000000.0,0.3
1044,2,0.3533328333333334,0.09333333333333334,-0.5000000000000019,0.0,0.0,0.0,0.0,0.0,0.0,0.0,0.0,0.0,1.0,1.0,1000.0,100000000.0,0.3
1045,2,0.3533328333333334,0.09666666666666666,-0.5000000000000019,0.0,0.0,0.0,0.0,0.0,0.0,0.0,0.0,0.0,1.0,1.0,1000.0,100000000.0,0.3
1046,2,0.3566661666666666,0.09333333333333334,-0.5000000000000019,0.0,0.0,0.0,0.0,0.0,0.0,0.0,0.0,0.0,1.0,1.0,1000.0,100000000.0,0.3
1047,2,0.3566661666666666,0.09666666666666666,-0.5000000000000019,0.0,0.0,0.0,0.0,0.0,0.0,0.0,0.0,0.0,1.0,1.0,1000.0,100000000.0,0.3
1048,2,0.3533328333333334,0.10333333333333335,-0.5000000000000026,0.0,0.0,0.0,0.0,0.0,0.0,0.0,0.0,0.0,1.0,1.0,1000.0,100000000.0,0.3
1049,2,0.3533328333333334,0.10666666666666666,-0.5000000000000026,0.0,0.0,0.0,0.0,0.0,0.0,0.0,0.0,0.0,1.0,1.0,1000.0,100000000.0,0.3
1050,2,0.3566661666666666,0.10333333333333335,-0.5000000000000026,0.0,0.0,0.0,0.0,0.0,0.0,0.0,0.0,0.0,1.0,1.0,1000.0,100000000.0,0.3
1051,2,0.3566661666666666,0.10666666666666666,-0.5000000000000026,0.0,0.0,0.0,0.0,0.0,0.0,0.0,0.0,0.0,1.0,1.0,1000.0,100000000.0,0.3
1052,2,0.3533328333333334,0.11333333333333334,-0.5000000000000026,0.0,0.0,0.0,0.0,0.0,0.0,0.0,0.0,0.0,1.0,1.0,1000.0,100000000.0,0.3
1053,2,0.3533328333333334,0.11666666666666667,-0.5000000000000027,0.0,0.0,0.0,0.0,0.0,0.0,0.0,0.0,0.0,1.0,1.0,1000.0,100000000.0,0.3
1054,2,0.3566661666666666,0.11333333333333334,-0.5000000000000026,0.0,0.0,0.0,0.0,0.0,0.0,0.0,0.0,0.0,1.0,1.0,1000.0,100000000.0,0.3
1055,2,0.3566661666666666,0.11666666666666667,-0.5000000000000027,0.0,0.0,0.0,0.0,0.0,0.0,0.0,0.0,0.0,1.0,1.0,1000.0,100000000.0,0.3
1056,2,0.3533328333333334,0.12333333333333334,-0.5000000000000019,0.0,0.0,0.0,0.0,0.0,0.0,0.0,0.0,0.0,1.0,1.0,1000.0,100000000.0,0.3
1057,2,0.3533328333333334,0.12666666666666665,-0.5000000000000019,0.0,0.0,0.0,0.0,0.0,0.0,0.0,0.0,0.0,1.0,1.0,1000.0,100000000.0,0.3
1058,2,0.3566661666666666,0.12333333333333334,-0.5000000000000019,0.0,0.0,0.0,0.0,0.0,0.0,0.0,0.0,0.0,1.0,1.0,1000.0,100000000.0,0.3
1059,2,0.3566661666666666,0.12666666666666665,-0.5000000000000019,0.0,0.0,0.0,0.0,0.0,0.0,0.0,0.0,0.0,1.0,1.0,1000.0,100000000.0,0.3
1060,2,0.3533328333333334,0.13333333333333333,-0.5000000000000019,0.0,4.782499183000674e-13,0.0,0.0,2.0496425070002888e-13,0.0,0.0,0.0,0.0,1.0,1.0,1000.0,100000000.0,0.3
1061,2,0.3533328333333334,0.13666666666666666,-0.5000000000000019,0.0,0.0,0.0,0.0,0.0,0.0,0.0,0.0,0.0,1.0,1.0,1000.0,100000000.0,0.3
1062,2,0.3566661666666666,0.13333333333333333,-0.5000000000000019,0.0,4.782499183000674e-13,0.0,0.0,2.0496425070002888e-13,0.0,0.0,0.0,0.0,1.0,1.0,1000.0,100000000.0,0.3
1063,2,0.3566661666666666,0.13666666666666666,-0.5000000000000019,0.0,0.0,0.0,0.0,0.0,0.0,0.0,0.0,0.0,1.0,1.0,1000.0,100000000.0,0.3
1064,2,0.3533328333333334,0.14333333333333334,-0.5000000000000032,0.0,0.0,0.0,0.0,0.0,0.0,0.0,0.0,0.0,1.0,1.0,1000.0,100000000.0,0.3
1065,2,0.3533328333333334,0.14666666666666667,-0.5000000000000033,0.0,0.0,0.0,0.0,0.0,0.0,0.0,0.0,0.0,1.0,1.0,1000.0,100000000.0,0.3
1066,2,0.3566661666666666,0.14333333333333334,-0.5000000000000033,0.0,0.0,0.0,0.0,0.0,0.0,0.0,0.0,0.0,1.0,1.0,1000.0,100000000.0,0.3
1067,2,0.3566661666666666,0.14666666666666667,-0.5000000000000033,0.0,0.0,0.0,0.0,0.0,0.0,0.0,0.0,0.0,1.0,1.0,1000.0,100000000.0,0.3
1068,2,0.3533328333333334,0.15333333333333335,-0.5000000000000019,0.0,0.0,0.0,0.0,0.0,0.0,0.0,0.0,0.0,1.0,1.0,1000.0,100000000.0,0.3
1069,2,0.3533328333333334,0.15666666666666668,-0.5000000000000019,0.0,9.564998366001349e-13,0.0,0.0,4.0992850140005776e-13,0.0,0.0,0.0,0.0,1.0,1.0,1000.0,100000000.0,0.3
1070,2,0.3566661666666666,0.15333333333333335,-0.5000000000000019,0.0,0.0,0.0,0.0,0.0,0.0,0.0,0.0,0.0,1.0,1.0,1000.0,100000000.0,0.3
1071,2,0.3566661666666666,0.15666666666666668,-0.5000000000000019,0.0,9.564998366001349e-13,0.0,0.0,4.0992850140005776e-13,0.0,0.0,0.0,0.0,1.0,1.0,1000.0,100000000.0,0.3
1072,2,0.3533328333333334,0.16333333333333333,-0.5000000000000019,0.0,4.782499183000674e-13,0.0,0.0,2.0496425070002888e-13,0.0,0.0,0.0,0.0,1.0,1.0,1000.0,100000000.0,0.3
1073,2,0.3533328333333334,0.16666666666666669,-0.5000000000000019,0.0,9.564998366001349e-13,0.0,0.0,4.0992850140005776e-13,0.0,0.0,0.0,0.0,1.0,1.0,1000.0,100000000.0,0.3
1074,2,0.3566661666666666,0.16333333333333333,-0.5000000000000019,0.0,4.782499183000674e-13,0.0,0.0,2.0496425070002888e-13,0.0,0.0,0.0,0.0,1.0,1.0,1000.0,100000000.0,0.3
1075,2,0.3566661666666666,0.16666666666666669,-0.5000000000000019,0.0,9.564998366001349e-13,0.0,0.0,4.0992850140005776e-13,0.0,0.0,0.0,0.0,1.0,1.0,1000.0,100000000.0,0.3
1076,2,0.3533328333333334,0.1733333333333333,-0.5000000000000033,0.0,4.782499183000674e-13,0.0,0.0,2.0496425070002888e-13,0.0,0.0,0.0,0.0,1.0,1.0,1000.0,100000000.0,0.3
1077,2,0.3566661666666666,0.1733333333333333,-0.5000000000000033,0.0,4.782499183000674e-13,0.0,0.0,2.0496425070002888e-13,0.0,0.0,0.0,0.0,1.0,1.0,1000.0,100000000.0,0.3
1078,2,0.3633328333333333,0.023333333333333334,-0.49999999999999967,0.0,0.0,0.0,0.0,0.0,0.0,0.0,0.0,0.0,1.0,1.0,1000.0,100000000.0,0.3
1079,2,0.3633328333333333,0.026666666666666665,-0.49999999999999967,0.0,0.0,0.0,0.0,0.0,0.0,0.0,0.0,0.0,1.0,1.0,1000.0,100000000.0,0.3
1080,2,0.3666661666666666,0.023333333333333334,-0.49999999999999967,0.0,0.0,0.0,0.0,0.0,0.0,0.0,0.0,0.0,1.0,1.0,1000.0,100000000.0,0.3
1081,2,0.3666661666666666,0.026666666666666665,-0.49999999999999967,0.0,0.0,0.0,0.0,0.0,0.0,0.0,0.0,0.0,1.0,1.0,1000.0,100000000.0,0.3
1082,2,0.3633328333333333,0.03333333333333333,-0.4999999999999995,0.0,0.0,0.0,0.0,0.0,0.0,0.0,0.0,0.0,1.0,1.0,1000.0,100000000.0,0.3
1083,2,0.3633328333333333,0.03666666666666667,-0.49999999999999944,0.0,0.0,0.0,0.0,0.0,0.0,0.0,0.0,0.0,1.0,1.0,1000.0,100000000.0,0.3
1084,2,0.3666661666666666,0.03333333333333333,-0.49999999999999944,0.0,0.0,0.0,0.0,0.0,0.0,0.0,0.0,0.0,1.0,1.0,1000.0,100000000.0,0.3
1085,2,0.3666661666666666,0.03666666666666667,-0.4999999999999995,0.0,0.0,0.0,0.0,0.0,0.0,0.0,0.0,0.0,1.0,1.0,1000.0,100000000.0,0.3
1086,2,0.3633328333333333,0.04333333333333333,-0.4999999999999994,0.0,-4.782499183000674e-13,0.0,0.0,-2.0496425070002888e-13,0.0,0.0,0.0,0.0,1.0,1.0,1000.0,100000000.0,0.3
1087,2,0.3633328333333333,0.04666666666666667,-0.49999999999999944,0.0,0.0,0.0,0.0,0.0,0.0,0.0,0.0,0.0,1.0,1.0,1000.0,100000000.0,0.3
1088,2,0.3666661666666666,0.04333333333333333,-0.49999999999999944,0.0,-4.782499183000674e-13,0.0,0.0,-2.0496425070002888e-13,0.0,0.0,0.0,0.0,1.0,1.0,1000.0,100000000.0,0.3
1089,2,0.3666661666666666,0.04666666666666667,-0.4999999999999995,0.0,0.0,0.0,0.0,0.0,0.0,0.0,0.0,0.0,1.0,1.0,1000.0,100000000.0,0.3
1090,2,0.3633328333333333,0.05333333333333333,-0.49999999999999983,0.0,0.0,0.0,0.0,0.0,0.0,0.0,0.0,0.0,1.0,1.0,1000.0,100000000.0,0.3
1091,2,0.3633328333333333,0.05666666666666667,-0.4999999999999998,0.0,0.0,0.0,0.0,0.0,0.0,0.0,0.0,0.0,1.0,1.0,1000.0,100000000.0,0.3
1092,2,0.3666661666666666,0.05333333333333333,-0.4999999999999998,0.0,0.0,0.0,0.0,0.0,0.0,0.0,0.0,0.0,1.0,1.0,1000.0,100000000.0,0.3
1093,2,0.3666661666666666,0.05666666666666667,-0.49999999999999983,0.0,0.0,0.0,0.0,0.0,0.0,0.0,0.0,0.0,1.0,1.0,1000.0,100000000.0,0.3
1094,2,0.3633328333333333,0.06333333333333332,-0.49999999999999906,0.0,4.782499183000674e-13,0.0,0.0,2.0496425070002888e-13,0.0,0.0,0.0,0.0,1.0,1.0,1000.0,100000000.0,0.3
1095,2,0.3633328333333333,0.06666666666666667,-0.4999999999999991,0.0,0.0,0.0,0.0,0.0,0.0,0.0,0.0,0.0,1.0,1.0,1000.0,100000000.0,0.3
1096,2,0.3666661666666666,0.06333333333333332,-0.4999999999999991,0.0,4.782499183000674e-13,0.0,0.0,2.0496425070002888e-13,0.0,0.0,0.0,0.0,1.0,1.0,1000.0,100000000.0,0.3
1097,2,0.3666661666666666,0.06666666666666667,-0.4999999999999991,0.0,0.0,0.0,0.0,0.0,0.0,0.0,0.0,0.0,1.0,1.0,1000.0,100000000.0,0.3
1098,2,0.3633328333333333,0.07333333333333333,-0.49999999999999983,0.0,0.0,0.0,0.0,0.0,0.0,0.0,0.0,0.0,1.0,1.0,1000.0,100000000.0,0.3
1099,2,0.3633328333333333,0.07666666666666667,-0.4999999999999998,0.0,0.0,0.0,0.0,0.0,0.0,0.0,0.0,0.0,1.0,1.0,1000.0,100000000.0,0.3
1100,2,0.3666661666666666,0.07333333333333333,-0.4999999999999998,0.0,0.0,0.0,0.0,0.0,0.0,0.0,0.0,0.0,1.0,1.0,1000.0,100000000.0,0.3
1101,2,0.3666661666666666,0.07666666666666667,-0.49999999999999983,0.0,0.0,0.0,0.0,0.0,0.0,0.0,0.0,0.0,1.0,1.0,1000.0,100000000.0,0.3
1102,2,0.3633328333333333,0.08333333333333334,-0.4999999999999998,0.0,0.0,0.0,0.0,0.0,0.0,0.0,0.0,0.0,1.0,1.0,1000.0,100000000.0,0.3
1103,2,0.3633328333333333,0.08666666666666666,-0.4999999999999998,0.0,0.0,0.0,0.0,0.0,0.0,0.0,0.0,0.0,1.0,1.0,1000.0,100000000.0,0.3
1104,2,0.3666661666666666,0.08333333333333334,-0.4999999999999998,0.0,0.0,0.0,0.0,0.0,0.0,0.0,0.0,0.0,1.0,1.0,1000.0,100000000.0,0.3
1105,2,0.3666661666666666,0.08666666666666666,-0.4999999999999998,0.0,0.0,0.0,0.0,0.0,0.0,0.0,0.0,0.0,1.0,1.0,1000.0,100000000.0,0.3
1106,2,0.3633328333333333,0.09333333333333334,-0.4999999999999991,0.0,0.0,0.0,0.0,0.0,0.0,0.0,0.0,0.0,1.0,1.0,1000.0,100000000.0,0.3
1107,2,0.3633328333333333,0.09666666666666666,-0.4999999999999991,0.0,0.0,0.0,0.0,0.0,0.0,0.0,0.0,0.0,1.0,1.0,1000.0,100000000.0,0.3
1108,2,0.3666661666666666,0.09333333333333334,-0.4999999999999991,0.0,0.0,0.0,0.0,0.0,0.0,0.0,0.0,0.0,1.0,1.0,1000.0,100000000.0,0.3
1109,2,0.3666661666666666,0.09666666666666666,-0.4999999999999991,0.0,0.0,0.0,0.0,0.0,0.0,0.0,0.0,0.0,1.0,1.0,1000.0,100000000.0,0.3
1110,2,0.3633328333333333,0.10333333333333335,-0.4999999999999998,0.0,0.0,0.0,0.0,0.0,0.0,0.0,0.0,0.0,1.0,1.0,1000.0,100000000.0,0.3
1111,2,0.3633328333333333,0.10666666666666666,-0.4999999999999998,0.0,0.0,0.0,0.0,0.0,0.0,0.0,0.0,0.0,1.0,1.0,1000.0,100000000.0,0.3
1112,2,0.3666661666666666,0.10333333333333335,-0.4999999999999998,0.0,0.0,0.0,0.0,0.0,0.0,0.0,0.0,0.0,1.0,1.0,1000.0,100000000.0,0.3
1113,2,0.3666661666666666,0.10666666666666666,-0.4999999999999998,0.0,0.0,0.0,0.0,0.0,0.0,0.0,0.0,0.0,1.0,1.0,1000.0,100000000.0,0.3
1114,2,0.3633328333333333,0.11333333333333334,-0.4999999999999998,0.0,0.0,0.0,0.0,0.0,0.0,0.0,0.0,0.0,1.0,1.0,1000.0,100000000.0,0.3
1115,2,0.3633328333333333,0.11666666666666667,-0.4999999999999998,0.0,0.0,0.0,0.0,0.0,0.0,0.0,0.0,0.0,1.0,1.0,1000.0,100000000.0,0.3
1116,2,0.3666661666666666,0.11333333333333334,-0.4999999999999998,0.0,0.0,0.0,0.0,0.0,0.0,0.0,0.0,0.0,1.0,1.0,1000.0,100000000.0,0.3
1117,2,0.3666661666666666,0.11666666666666667,-0.49999999999999983,0.0,0.0,0.0,0.0,0.0,0.0,0.0,0.0,0.0,1.0,1.0,1000.0,100000000.0,0.3
1118,2,0.3633328333333333,0.12333333333333334,-0.4999999999999991,0.0,0.0,0.0,0.0,0.0,0.0,0.0,0.0,0.0,1.0,1.0,1000.0,100000000.0,0.3
1119,2,0.3633328333333333,0.12666666666666665,-0.4999999999999991,0.0,0.0,0.0,0.0,0.0,0.0,0.0,0.0,0.0,1.0,1.0,1000.0,100000000.0,0.3
1120,2,0.3666661666666666,0.12333333333333334,-0.4999999999999991,0.0,0.0,0.0,0.0,0.0,0.0,0.0,0.0,0.0,1.0,1.0,1000.0,100000000.0,0.3
1121,2,0.3666661666666666,0.12666666666666665,-0.4999999999999991,0.0,0.0,0.0,0.0,0.0,0.0,0.0,0.0,0.0,1.0,1.0,1000.0,100000000.0,0.3
1122,2,0.3633328333333333,0.13333333333333333,-0.49999999999999906,0.0,4.782499183000674e-13,0.0,0.0,2.0496425070002888e-13,0.0,0.0,0.0,0.0,1.0,1.0,1000.0,100000000.0,0.3
1123,2,0.3633328333333333,0.13666666666666666,-0.4999999999999991,0.0,0.0,0.0,0.0,0.0,0.0,0.0,0.0,0.0,1.0,1.0,1000.0,100000000.0,0.3
1124,2,0.3666661666666666,0.13333333333333333,-0.4999999999999991,0.0,4.782499183000674e-13,0.0,0.0,2.0496425070002888e-13,0.0,0.0,0.0,0.0,1.0,1.0,1000.0,100000000.0,0.3
1125,2,0.3666661666666666,0.13666666666666666,-0.4999999999999991,0.0,0.0,0.0,0.0,0.0,0.0,0.0,0.0,0.0,1.0,1.0,1000.0,100000000.0,0.3
1126,2,0.3633328333333333,0.14333333333333334,-0.5000000000000006,0.0,0.0,0.0,0.0,0.0,0.0,0.0,0.0,0.0,1.0,1.0,1000.0,100000000.0,0.3
1127,2,0.3633328333333333,0.14666666666666667,-0.5000000000000004,0.0,0.0,0.0,0.0,0.0,0.0,0.0,0.0,0.0,1.0,1.0,1000.0,100000000.0,0.3
1128,2,0.3666661666666666,0.14333333333333334,-0.5000000000000004,0.0,0.0,0.0,0.0,0.0,0.0,0.0,0.0,0.0,1.0,1.0,1000.0,100000000.0,0.3
1129,2,0.3666661666666666,0.14666666666666667,-0.5000000000000004,0.0,0.0,0.0,0.0,0.0,0.0,0.0,0.0,0.0,1.0,1.0,1000.0,100000000.0,0.3
1130,2,0.3633328333333333,0.15333333333333335,-0.4999999999999991,0.0,0.0,0.0,0.0,0.0,0.0,0.0,0.0,0.0,1.0,1.0,1000.0,100000000.0,0.3
1131,2,0.3633328333333333,0.15666666666666668,-0.4999999999999991,0.0,9.564998366001349e-13,0.0,0.0,4.0992850140005776e-13,0.0,0.0,0.0,0.0,1.0,1.0,1000.0,100000000.0,0.3
1132,2,0.3666661666666666,0.15333333333333335,-0.4999999999999991,0.0,0.0,0.0,0.0,0.0,0.0,0.0,0.0,0.0,1.0,1.0,1000.0,100000000.0,0.3
1133,2,0.3666661666666666,0.15666666666666668,-0.49999999999999906,0.0,9.564998366001349e-13,0.0,0.0,4.0992850140005776e-13,0.0,0.0,0.0,0.0,1.0,1.0,1000.0,100000000.0,0.3
1134,2,0.3633328333333333,0.16333333333333333,-0.49999999999999906,0.0,4.782499183000674e-13,0.0,0.0,2.0496425070002888e-13,0.0,0.0,0.0,0.0,1.0,1.0,1000.0,100000000.0,0.3
1135,2,0.3633328333333333,0.16666666666666669,-0.4999999999999991,0.0,9.564998366001349e-13,0.0,0.0,4.0992850140005776e-13,0.0,0.0,0.0,0.0,1.0,1.0,1000.0,100000000.0,0.3
1136,2,0.3666661666666666,0.16333333333333333,-0.4999999999999991,0.0,4.782499183000674e-13,0.0,0.0,2.0496425070002888e-13,0.0,0.0,0.0,0.0,1.0,1.0,1000.0,100000000.0,0.3
1137,2,0.3666661666666666,0.16666666666666669,-0.49999999999999906,0.0,9.564998366001349e-13,0.0,0.0,4.0992850140005776e-13,0.0,0.0,0.0,0.0,1.0,1.0,1000.0,100000000.0,0.3
1138,2,0.3633328333333333,0.1733333333333333,-0.5000000000000006,0.0,4.782499183000674e-13,0.0,0.0,2.0496425070002888e-13,0.0,0.0,0.0,0.0,1.0,1.0,1000.0,100000000.0,0.3
1139,2,0.3633328333333333,0.1766666666666667,-0.5000000000000006,0.0,9.564998366001349e-13,0.0,0.0,4.0992850140005776e-13,0.0,0.0,0.0,0.0,1.0,1.0,1000.0,100000000.0,0.3
1140,2,0.3666661666666666,0.1733333333333333,-0.5000000000000006,0.0,4.782499183000674e-13,0.0,0.0,2.0496425070002888e-13,0.0,0.0,0.0,0.0,1.0,1.0,1000.0,100000000.0,0.3
1141,2,0.3666661666666666,0.1766666666666667,-0.5000000000000006,0.0,9.564998366001349e-13,0.0,0.0,4.0992850140005776e-13,0.0,0.0,0.0,0.0,1.0,1.0,1000.0,100000000.0,0.3
1142,2,0.37333283333333334,0.023333333333333334,-0.49999999999999967,0.0,0.0,0.0,0.0,0.0,0.0,0.0,0.0,0.0,1.0,1.0,1000.0,100000000.0,0.3
1143,2,0.37333283333333334,0.026666666666666665,-0.49999999999999967,0.0,0.0,0.0,0.0,0.0,0.0,0.0,0.0,0.0,1.0,1.0,1000.0,100000000.0,0.3
1144,2,0.37666616666666664,0.023333333333333334,-0.49999999999999967,0.0,0.0,0.0,0.0,0.0,0.0,0.0,0.0,0.0,1.0,1.0,1000.0,100000000.0,0.3
1145,2,0.37666616666666664,0.026666666666666665,-0.49999999999999967,0.0,0.0,0.0,0.0,0.0,0.0,0.0,0.0,0.0,1.0,1.0,1000.0,100000000.0,0.3
1146,2,0.37333283333333334,0.03333333333333333,-0.4999999999999995,0.0,0.0,0.0,0.0,0.0,0.0,0.0,0.0,0.0,1.0,1.0,1000.0,100000000.0,0.3
1147,2,0.37333283333333334,0.03666666666666667,-0.49999999999999944,0.0,0.0,0.0,0.0,0.0,0.0,0.0,0.0,0.0,1.0,1.0,1000.0,100000000.0,0.3
1148,2,0.37666616666666664,0.03333333333333333,-0.49999999999999944,0.0,0.0,0.0,0.0,0.0,0.0,0.0,0.0,0.0,1.0,1.0,1000.0,100000000.0,0.3
1149,2,0.37666616666666664,0.03666666666666667,-0.4999999999999995,0.0,0.0,0.0,0.0,0.0,0.0,0.0,0.0,0.0,1.0,1.0,1000.0,100000000.0,0.3
1150,2,0.37333283333333334,0.04333333333333333,-0.4999999999999994,0.0,-4.782499183000674e-13,0.0,0.0,-2.0496425070002888e-13,0.0,0.0,0.0,0.0,1.0,1.0,1000.0,100000000.0,0.3
1151,2,0.37333283333333334,0.04666666666666667,-0.49999999999999944,0.0,0.0,0.0,0.0,0.0,0.0,0.0,0.0,0.0,1.0,1.0,1000.0,100000000.0,0.3
1152,2,0.37666616666666664,0.04333333333333333,-0.49999999999999944,0.0,-4.782499183000674e-13,0.0,0.0,-2.0496425070002888e-13,0.0,0.0,0.0,0.0,1.0,1.0,1000.0,100000000.0,0.3
1153,2,0.37666616666666664,0.04666666666666667,-0.4999999999999995,0.0,0.0,0.0,0.0,0.0,0.0,0.0,0.0,0.0,1.0,1.0,1000.0,100000000.0,0.3
1154,2,0.37333283333333334,0.05333333333333333,-0.49999999999999983,0.0,0.0,0.0,0.0,0.0,0.0,0.0,0.0,0.0,1.0,1.0,1000.0,100000000.0,0.3
1155,2,0.37333283333333334,0.05666666666666667,-0.4999999999999998,0.0,0.0,0.0,0.0,0.0,0.0,0.0,0.0,0.0,1.0,1.0,1000.0,100000000.0,0.3
1156,2,0.37666616666666664,0.05333333333333333,-0.4999999999999998,0.0,0.0,0.0,0.0,0.0,0.0,0.0,0.0,0.0,1.0,1.0,1000.0,100000000.0,0.3
1157,2,0.37666616666666664,0.05666666666666667,-0.49999999999999983,0.0,0.0,0.0,0.0,0.0,0.0,0.0,0.0,0.0,1.0,1.0,1000.0,100000000.0,0.3
1158,2,0.37333283333333334,0.06333333333333332,-0.49999999999999906,0.0,4.782499183000674e-13,0.0,0.0,2.0496425070002888e-13,0.0,0.0,0.0,0.0,1.0,1.0,1000.0,100000000.0,0.3
1159,2,0.37333283333333334,0.06666666666666667,-0.4999999999999991,0.0,0.0,0.0,0.0,0.0,0.0,0.0,0.0,0.0,1.0,1.0,1000.0,100000000.0,0.3
1160,2,0.37666616666666664,0.06333333333333332,-0.4999999999999991,0.0,4.782499183000674e-13,0.0,0.0,2.0496425070002888e-13,0.0,0.0,0.0,0.0,1.0,1.0,1000.0,100000000.0,0.3
1161,2,0.37666616666666664,0.06666666666666667,-0.4999999999999991,0.0,0.0,0.0,0.0,0.0,0.0,0.0,0.0,0.0,1.0,1.0,1000.0,100000000.0,0.3
1162,2,0.37333283333333334,0.07333333333333333,-0.49999999999999983,0.0,0.0,0.0,0.0,0.0,0.0,0.0,0.0,0.0,1.0,1.0,1000.0,100000000.0,0.3
1163,2,0.37333283333333334,0.07666666666666667,-0.4999999999999998,0.0,0.0,0.0,0.0,0.0,0.0,0.0,0.0,0.0,1.0,1.0,1000.0,100000000.0,0.3
1164,2,0.37666616666666664,0.07333333333333333,-0.4999999999999998,0.0,0.0,0.0,0.0,0.0,0.0,0.0,0.0,0.0,1.0,1.0,1000.0,100000000.0,0.3
1165,2,0.37666616666666664,0.07666666666666667,-0.49999999999999983,0.0,0.0,0.0,0.0,0.0,0.0,0.0,0.0,0.0,1.0,1.0,1000.0,100000000.0,0.3
1166,2,0.37333283333333334,0.08333333333333334,-0.4999999999999998,0.0,0.0,0.0,0.0,0.0,0.0,0.0,0.0,0.0,1.0,1.0,1000.0,100000000.0,0.3
1167,2,0.37333283333333334,0.08666666666666666,-0.4999999999999998,0.0,0.0,0.0,0.0,0.0,0.0,0.0,0.0,0.0,1.0,1.0,1000.0,100000000.0,0.3
1168,2,0.37666616666666664,0.08333333333333334,-0.4999999999999998,0.0,0.0,0.0,0.0,0.0,0.0,0.0,0.0,0.0,1.0,1.0,1000.0,100000000.0,0.3
1169,2,0.37666616666666664,0.08666666666666666,-0.4999999999999998,0.0,0.0,0.0,0.0,0.0,0.0,0.0,0.0,0.0,1.0,1.0,1000.0,100000000.0,0.3
1170,2,0.37333283333333334,0.09333333333333334,-0.4999999999999991,0.0,0.0,0.0,0.0,0.0,0.0,0.0,0.0,0.0,1.0,1.0,1000.0,100000000.0,0.3
1171,2,0.37333283333333334,0.09666666666666666,-0.4999999999999991,0.0,0.0,0.0,0.0,0.0,0.0,0.0,0.0,0.0,1.0,1.0,1000.0,100000000.0,0.3
1172,2,0.37666616666666664,0.09333333333333334,-0.4999999999999991,0.0,0.0,0.0,0.0,0.0,0.0,0.0,0.0,0.0,1.0,1.0,1000.0,100000000.0,0.3
1173,2,0.37666616666666664,0.09666666666666666,-0.4999999999999991,0.0,0.0,0.0,0.0,0.0,0.0,0.0,0.0,0.0,1.0,1.0,1000.0,100000000.0,0.3
1174,2,0.37333283333333334,0.10333333333333335,-0.4999999999999998,0.0,0.0,0.0,0.0,0.0,0.0,0.0,0.0,0.0,1.0,1.0,1000.0,100000000.0,0.3
1175,2,0.37333283333333334,0.10666666666666666,-0.4999999999999998,0.0,0.0,0.0,0.0,0.0,0.0,0.0,0.0,0.0,1.0,1.0,1000.0,100000000.0,0.3
1176,2,0.37666616666666664,0.10333333333333335,-0.4999999999999998,0.0,0.0,0.0,0.0,0.0,0.0,0.0,0.0,0.0,1.0,1.0,1000.0,100000000.0,0.3
1177,2,0.37666616666666664,0.10666666666666666,-0.4999999999999998,0.0,0.0,0.0,0.0,0.0,0.0,0.0,0.0,0.0,1.0,1.0,1000.0,100000000.0,0.3
1178,2,0.37333283333333334,0.11333333333333334,-0.4999999999999998,0.0,0.0,0.0,0.0,0.0,0.0,0.0,0.0,0.0,1.0,1.0,1000.0,100000000.0,0.3
1179,2,0.37333283333333334,0.11666666666666667,-0.4999999999999998,0.0,0.0,0.0,0.0,0.0,0.0,0.0,0.0,0.0,1.0,1.0,1000.0,100000000.0,0.3
1180,2,0.37666616666666664,0.11333333333333334,-0.4999999999999998,0.0,0.0,0.0,0.0,0.0,0.0,0.0,0.0,0.0,1.0,1.0,1000.0,100000000.0,0.3
1181,2,0.37666616666666664,0.11666666666666667,-0.49999999999999983,0.0,0.0,0.0,0.0,0.0,0.0,0.0,0.0,0.0,1.0,1.0,1000.0,100000000.0,0.3
1182,2,0.37333283333333334,0.12333333333333334,-0.4999999999999991,0.0,0.0,0.0,0.0,0.0,0.0,0.0,0.0,0.0,1.0,1.0,1000.0,100000000.0,0.3
1183,2,0.37333283333333334,0.12666666666666665,-0.4999999999999991,0.0,0.0,0.0,0.0,0.0,0.0,0.0,0.0,0.0,1.0,1.0,1000.0,100000000.0,0.3
1184,2,0.37666616666666664,0.12333333333333334,-0.4999999999999991,0.0,0.0,0.0,0.0,0.0,0.0,0.0,0.0,0.0,1.0,1.0,1000.0,100000000.0,0.3
1185,2,0.37666616666666664,0.12666666666666665,-0.4999999999999991,0.0,0.0,0.0,0.0,0.0,0.0,0.0,0.0,0.0,1.0,1.0,1000.0,100000000.0,0.3
1186,2,0.37333283333333334,0.13333333333333333,-0.49999999999999906,0.0,4.782499183000674e-13,0.0,0.0,2.0496425070002888e-13,0.0,0.0,0.0,0.0,1.0,1.0,1000.0,100000000.0,0.3
1187,2,0.37333283333333334,0.13666666666666666,-0.4999999999999991,0.0,0.0,0.0,0.0,0.0,0.0,0.0,0.0,0.0,1.0,1.0,1000.0,100000000.0,0.3
1188,2,0.37666616666666664,0.13333333333333333,-0.4999999999999991,0.0,4.782499183000674e-13,0.0,0.0,2.0496425070002888e-13,0.0,0.0,0.0,0.0,1.0,1.0,1000.0,100000000.0,0.3
1189,2,0.37666616666666664,0.13666666666666666,-0.4999999999999991,0.0,0.0,0.0,0.0,0.0,0.0,0.0,0.0,0.0,1.0,1.0,1000.0,100000000.0,0.3
1190,2,0.37333283333333334,0.14333333333333334,-0.5000000000000006,0.0,0.0,0.0,0.0,0.0,0.0,0.0,0.0,0.0,1.0,1.0,1000.0,100000000.0,0.3
1191,2,0.37333283333333334,0.14666666666666667,-0.5000000000000004,0.0,0.0,0.0,0.0,0.0,0.0,0.0,0.0,0.0,1.0,1.0,1000.0,100000000.0,0.3
1192,2,0.37666616666666664,0.14333333333333334,-0.5000000000000004,0.0,0.0,0.0,0.0,0.0,0.0,0.0,0.0,0.0,1.0,1.0,1000.0,100000000.0,0.3
1193,2,0.37666616666666664,0.14666666666666667,-0.5000000000000004,0.0,0.0,0.0,0.0,0.0,0.0,0.0,0.0,0.0,1.0,1.0,1000.0,100000000.0,0.3
1194,2,0.37333283333333334,0.15333333333333335,-0.4999999999999991,0.0,0.0,0.0,0.0,0.0,0.0,0.0,0.0,0.0,1.0,1.0,1000.0,100000000.0,0.3
1195,2,0.37333283333333334,0.15666666666666668,-0.4999999999999991,0.0,9.564998366001349e-13,0.0,0.0,4.0992850140005776e-13,0.0,0.0,0.0,0.0,1.0,1.0,1000.0,100000000.0,0.3
1196,2,0.37666616666666664,0.15333333333333335,-0.4999999999999991,0.0,0.0,0.0,0.0,0.0,0.0,0.0,0.0,0.0,1.0,1.0,1000.0,100000000.0,0.3
1197,2,0.37666616666666664,0.15666666666666668,-0.49999999999999906,0.0,9.564998366001349e-13,0.0,0.0,4.0992850140005776e-13,0.0,0.0,0.0,0.0,1.0,1.0,1000.0,100000000.0,0.3
1198,2,0.37333283333333334,0.16333333333333333,-0.49999999999999906,0.0,4.782499183000674e-13,0.0,0.0,2.0496425070002888e-13,0.0,0.0,0.0,0.0,1.0,1.0,1000.0,100000000.0,0.3
1199,2,0.37333283333333334,0.16666666666666669,-0.4999999999999991,0.0,9.564998366001349e-13,0.0,0.0,4.0992850140005776e-13,0.0,0.0,0.0,0.0,1.0,1.0,1000.0,100000000.0,0.3
1200,2,0.37666616666666664,0.16333333333333333,-0.4999999999999991,0.0,4.782499183000674e-13,0.0,0.0,2.0496425070002888e-13,0.0,0.0,0.0,0.0,1.0,1.0,1000.0,100000000.0,0.3
1201,2,0.37666616666666664,0.16666666666666669,-0.49999999999999906,0.0,9.564998366001349e-13,0.0,0.0,4.0992850140005776e-13,0.0,0.0,0.0,0.0,1.0,1.0,1000.0,100000000.0,0.3
1202,2,0.37333283333333334,0.1733333333333333,-0.5000000000000006,0.0,4.782499183000674e-13,0.0,0.0,2.0496425070002888e-13,0.0,0.0,0.0,0.0,1.0,1.0,1000.0,100000000.0,0.3
1203,2,0.37333283333333334,0.1766666666666667,-0.5000000000000006,0.0,9.564998366001349e-13,0.0,0.0,4.0992850140005776e-13,0.0,0.0,0.0,0.0,1.0,1.0,1000.0,100000000.0,0.3
1204,2,0.37666616666666664,0.1733333333333333,-0.5000000000000006,0.0,4.782499183000674e-13,0.0,0.0,2.0496425070002888e-13,0.0,0.0,0.0,0.0,1.0,1.0,1000.0,100000000.0,0.3
1205,2,0.37666616666666664,0.1766666666666667,-0.5000000000000006,0.0,9.564998366001349e-13,0.0,0.0,4.0992850140005776e-13,0.0,0.0,0.0,0.0,1.0,1.0,1000.0,100000000.0,0.3
1206,2,0.38333283333333334,0.023333333333333334,-0.49999999999999967,0.0,0.0,0.0,0.0,0.0,0.0,0.0,0.0,0.0,1.0,1.0,1000.0,100000000.0,0.3
1207,2,0.38333283333333334,0.026666666666666665,-0.49999999999999967,0.0,0.0,0.0,0.0,0.0,0.0,0.0,0.0,0.0,1.0,1.0,1000.0,100000000.0,0.3
1208,2,0.38666616666666664,0.023333333333333334,-0.49999999999999967,0.0,0.0,0.0,0.0,0.0,0.0,0.0,0.0,0.0,1.0,1.0,1000.0,100000000.0,0.3
1209,2,0.38666616666666664,0.026666666666666665,-0.49999999999999967,0.0,0.0,0.0,0.0,0.0,0.0,0.0,0.0,0.0,1.0,1.0,1000.0,100000000.0,0.3
1210,2,0.38333283333333334,0.03333333333333333,-0.4999999999999995,0.0,0.0,0.0,0.0,0.0,0.0,0.0,0.0,0.0,1.0,1.0,1000.0,100000000.0,0.3
1211,2,0.38333283333333334,0.03666666666666667,-0.49999999999999944,0.0,0.0,0.0,0.0,0.0,0.0,0.0,0.0,0.0,1.0,1.0,1000.0,100000000.0,0.3
1212,2,0.38666616666666664,0.03333333333333333,-0.49999999999999944,0.0,0.0,0.0,0.0,0.0,0.0,0.0,0.0,0.0,1.0,1.0,1000.0,100000000.0,0.3
1213,2,0.38666616666666664,0.03666666666666667,-0.4999999999999995,0.0,0.0,0.0,0.0,0.0,0.0,0.0,0.0,0.0,1.0,1.0,1000.0,100000000.0,0.3
1214,2,0.38333283333333334,0.04333333333333333,-0.4999999999999994,0.0,-4.782499183000674e-13,0.0,0.0,-2.0496425070002888e-13,0.0,0.0,0.0,0.0,1.0,1.0,1000.0,100000000.0,0.3
1215,2,0.38333283333333334,0.04666666666666667,-0.49999999999999944,0.0,0.0,0.0,0.0,0.0,0.0,0.0,0.0,0.0,1.0,1.0,1000.0,100000000.0,0.3
1216,2,0.38666616666666664,0.04333333333333333,-0.49999999999999944,0.0,-4.782499183000674e-13,0.0,0.0,-2.0496425070002888e-13,0.0,0.0,0.0,0.0,1.0,1.0,1000.0,100000000.0,0.3
1217,2,0.38666616666666664,0.04666666666666667,-0.4999999999999995,0.0,0.0,0.0,0.0,0.0,0.0,0.0,0.0,0.0,1.0,1.0,1000.0,100000000.0,0.3
1218,2,0.38333283333333334,0.05333333333333333,-0.49999999999999983,0.0,0.0,0.0,0.0,0.0,0.0,0.0,0.0,0.0,1.0,1.0,1000.0,100000000.0,0.3
1219,2,0.38333283333333334,0.05666666666666667,-0.4999999999999998,0.0,0.0,0.0,0.0,0.0,0.0,0.0,0.0,0.0,1.0,1.0,1000.0,100000000.0,0.3
1220,2,0.38666616666666664,0.05333333333333333,-0.4999999999999998,0.0,0.0,0.0,0.0,0.0,0.0,0.0,0.0,0.0,1.0,1.0,1000.0,100000000.0,0.3
1221,2,0.38666616666666664,0.05666666666666667,-0.49999999999999983,0.0,0.0,0.0,0.0,0.0,0.0,0.0,0.0,0.0,1.0,1.0,1000.0,100000000.0,0.3
1222,2,0.38333283333333334,0.06333333333333332,-0.49999999999999906,0.0,4.782499183000674e-13,0.0,0.0,2.0496425070002888e-13,0.0,0.0,0.0,0.0,1.0,1.0,1000.0,100000000.0,0.3
1223,2,0.38333283333333334,0.06666666666666667,-0.4999999999999991,0.0,0.0,0.0,0.0,0.0,0.0,0.0,0.0,0.0,1.0,1.0,1000.0,100000000.0,0.3
1224,2,0.38666616666666664,0.06333333333333332,-0.4999999999999991,0.0,4.782499183000674e-13,0.0,0.0,2.0496425070002888e-13,0.0,0.0,0.0,0.0,1.0,1.0,1000.0,100000000.0,0.3
1225,2,0.38666616666666664,0.06666666666666667,-0.4999999999999991,0.0,0.0,0.0,0.0,0.0,0.0,0.0,0.0,0.0,1.0,1.0,1000.0,100000000.0,0.3
1226,2,0.38333283333333334,0.07333333333333333,-0.49999999999999983,0.0,0.0,0.0,0.0,0.0,0.0,0.0,0.0,0.0,1.0,1.0,1000.0,100000000.0,0.3
1227,2,0.38333283333333334,0.07666666666666667,-0.4999999999999998,0.0,0.0,0.0,0.0,0.0,0.0,0.0,0.0,0.0,1.0,1.0,1000.0,100000000.0,0.3
1228,2,0.38666616666666664,0.07333333333333333,-0.4999999999999998,0.0,0.0,0.0,0.0,0.0,0.0,0.0,0.0,0.0,1.0,1.0,1000.0,100000000.0,0.3
1229,2,0.38666616666666664,0.07666666666666667,-0.49999999999999983,0.0,0.0,0.0,0.0,0.0,0.0,0.0,0.0,0.0,1.0,1.0,1000.0,100000000.0,0.3
1230,2,0.38333283333333334,0.08333333333333334,-0.4999999999999998,0.0,0.0,0.0,0.0,0.0,0.0,0.0,0.0,0.0,1.0,1.0,1000.0,100000000.0,0.3
1231,2,0.38333283333333334,0.08666666666666666,-0.4999999999999998,0.0,0.0,0.0,0.0,0.0,0.0,0.0,0.0,0.0,1.0,1.0,1000.0,100000000.0,0.3
1232,2,0.38666616666666664,0.08333333333333334,-0.4999999999999998,0.0,0.0,0.0,0.0,0.0,0.0,0.0,0.0,0.0,1.0,1.0,1000.0,100000000.0,0.3
1233,2,0.38666616666666664,0.08666666666666666,-0.4999999999999998,0.0,0.0,0.0,0.0,0.0,0.0,0.0,0.0,0.0,1.0,1.0,1000.0,100000000.0,0.3
1234,2,0.38333283333333334,0.09333333333333334,-0.4999999999999991,0.0,0.0,0.0,0.0,0.0,0.0,0.0,0.0,0.0,1.0,1.0,1000.0,100000000.0,0.3
1235,2,0.38333283333333334,0.09666666666666666,-0.4999999999999991,0.0,0.0,0.0,0.0,0.0,0.0,0.0,0.0,0.0,1.0,1.0,1000.0,100000000.0,0.3
1236,2,0.38666616666666664,0.09333333333333334,-0.4999999999999991,0.0,0.0,0.0,0.0,0.0,0.0,0.0,0.0,0.0,1.0,1.0,1000.0,100000000.0,0.3
1237,2,0.38666616666666664,0.09666666666666666,-0.4999999999999991,0.0,0.0,0.0,0.0,0.0,0.0,0.0,0.0,0.0,1.0,1.0,1000.0,100000000.0,0.3
1238,2,0.38333283333333334,0.10333333333333335,-0.4999999999999998,0.0,0.0,0.0,0.0,0.0,0.0,0.0,0.0,0.0,1.0,1.0,1000.0,100000000.0,0.3
1239,2,0.38333283333333334,0.10666666666666666,-0.4999999999999998,0.0,0.0,0.0,0.0,0.0,0.0,0.0,0.0,0.0,1.0,1.0,1000.0,100000000.0,0.3
1240,2,0.38666616666666664,0.10333333333333335,-0.4999999999999998,0.0,0.0,0.0,0.0,0.0,0.0,0.0,0.0,0.0,1.0,1.0,1000.0,100000000.0,0.3
1241,2,0.38666616666666664,0.10666666666666666,-0.4999999999999998,0.0,0.0,0.0,0.0,0.0,0.0,0.0,0.0,0.0,1.0,1.0,1000.0,100000000.0,0.3
1242,2,0.38333283333333334,0.11333333333333334,-0.4999999999999998,0.0,0.0,0.0,0.0,0.0,0.0,0.0,0.0,0.0,1.0,1.0,1000.0,100000000.0,0.3
1243,2,0.38333283333333334,0.11666666666666667,-0.4999999999999998,0.0,0.0,0.0,0.0,0.0,0.0,0.0,0.0,0.0,1.0,1.0,1000.0,100000000.0,0.3
1244,2,0.38666616666666664,0.11333333333333334,-0.4999999999999998,0.0,0.0,0.0,0.0,0.0,0.0,0.0,0.0,0.0,1.0,1.0,1000.0,100000000.0,0.3
1245,2,0.38666616666666664,0.11666666666666667,-0.49999999999999983,0.0,0.0,0.0,0.0,0.0,0.0,0.0,0.0,0.0,1.0,1.0,1000.0,100000000.0,0.3
1246,2,0.38333283333333334,0.12333333333333334,-0.4999999999999991,0.0,0.0,0.0,0.0,0.0,0.0,0.0,0.0,0.0,1.0,1.0,1000.0,100000000.0,0.3
1247,2,0.38333283333333334,0.12666666666666665,-0.4999999999999991,0.0,0.0,0.0,0.0,0.0,0.0,0.0,0.0,0.0,1.0,1.0,1000.0,100000000.0,0.3
1248,2,0.38666616666666664,0.12333333333333334,-0.4999999999999991,0.0,0.0,0.0,0.0,0.0,0.0,0.0,0.0,0.0,1.0,1.0,1000.0,100000000.0,0.3
1249,2,0.38666616666666664,0.12666666666666665,-0.4999999999999991,0.0,0.0,0.0,0.0,0.0,0.0,0.0,0.0,0.0,1.0,1.0,1000.0,100000000.0,0.3
1250,2,0.38333283333333334,0.13333333333333333,-0.49999999999999906,0.0,4.782499183000674e-13,0.0,0.0,2.0496425070002888e-13,0.0,0.0,0.0,0.0,1.0,1.0,1000.0,100000000.0,0.3
1251,2,0.38333283333333334,0.13666666666666666,-0.4999999999999991,0.0,0.0,0.0,0.0,0.0,0.0,0.0,0.0,0.0,1.0,1.0,1000.0,100000000.0,0.3
1252,2,0.38666616666666664,0.13333333333333333,-0.4999999999999991,0.0,4.782499183000674e-13,0.0,0.0,2.0496425070002888e-13,0.0,0.0,0.0,0.0,1.0,1.0,1000.0,100000000.0,0.3
1253,2,0.38666616666666664,0.13666666666666666,-0.4999999999999991,0.0,0.0,0.0,0.0,0.0,0.0,0.0,0.0,0.0,1.0,1.0,1000.0,100000000.0,0.3
1254,2,0.38333283333333334,0.14333333333333334,-0.5000000000000006,0.0,0.0,0.0,0.0,0.0,0.0,0.0,0.0,0.0,1.0,1.0,1000.0,100000000.0,0.3
1255,2,0.38333283333333334,0.14666666666666667,-0.5000000000000004,0.0,0.0,0.0,0.0,0.0,0.0,0.0,0.0,0.0,1.0,1.0,1000.0,100000000.0,0.3
1256,2,0.38666616666666664,0.14333333333333334,-0.5000000000000004,0.0,0.0,0.0,0.0,0.0,0.0,0.0,0.0,0.0,1.0,1.0,1000.0,100000000.0,0.3
1257,2,0.38666616666666664,0.14666666666666667,-0.5000000000000004,0.0,0.0,0.0,0.0,0.0,0.0,0.0,0.0,0.0,1.0,1.0,1000.0,100000000.0,0.3
1258,2,0.38333283333333334,0.15333333333333335,-0.4999999999999991,0.0,0.0,0.0,0.0,0.0,0.0,0.0,0.0,0.0,1.0,1.0,1000.0,100000000.0,0.3
1259,2,0.38333283333333334,0.15666666666666668,-0.4999999999999991,0.0,9.564998366001349e-13,0.0,0.0,4.0992850140005776e-13,0.0,0.0,0.0,0.0,1.0,1.0,1000.0,100000000.0,0.3
1260,2,0.38666616666666664,0.15333333333333335,-0.4999999999999991,0.0,0.0,0.0,0.0,0.0,0.0,0.0,0.0,0.0,1.0,1.0,1000.0,100000000.0,0.3
1261,2,0.38666616666666664,0.15666666666666668,-0.49999999999999906,0.0,9.564998366001349e-13,0.0,0.0,4.0992850140005776e-13,0.0,0.0,0.0,0.0,1.0,1.0,1000.0,100000000.0,0.3
1262,2,0.38333283333333334,0.16333333333333333,-0.49999999999999906,0.0,4.782499183000674e-13,0.0,0.0,2.0496425070002888e-13,0.0,0.0,0.0,0.0,1.0,1.0,1000.0,100000000.0,0.3
1263,2,0.38333283333333334,0.16666666666666669,-0.4999999999999991,0.0,9.564998366001349e-13,0.0,0.0,4.0992850140005776e-13,0.0,0.0,0.0,0.0,1.0,1.0,1000.0,100000000.0,0.3
1264,2,0.38666616666666664,0.16333333333333333,-0.4999999999999991,0.0,4.782499183000674e-13,0.0,0.0,2.0496425070002888e-13,0.0,0.0,0.0,0.0,1.0,1.0,1000.0,100000000.0,0.3
1265,2,0.38666616666666664,0.16666666666666669,-0.49999999999999906,0.0,9.564998366001349e-13,0.0,0.0,4.0992850140005776e-13,0.0,0.0,0.0,0.0,1.0,1.0,1000.0,100000000.0,0.3
1266,2,0.38333283333333334,0.1733333333333333,-0.5000000000000006,0.0,4.782499183000674e-13,0.0,0.0,2.0496425070002888e-13,0.0,0.0,0.0,0.0,1.0,1.0,1000.0,100000000.0,0.3
1267,2,0.38333283333333334,0.1766666666666667,-0.5000000000000006,0.0,9.564998366001349e-13,0.0,0.0,4.0992850140005776e-13,0.0,0.0,0.0,0.0,1.0,1.0,1000.0,100000000.0,0.3
1268,2,0.38666616666666664,0.1733333333333333,-0.5000000000000006,0.0,4.782499183000674e-13,0.0,0.0,2.0496425070002888e-13,0.0,0.0,0.0,0.0,1.0,1.0,1000.0,100000000.0,0.3
1269,2,0.38666616666666664,0.1766666666666667,-0.5000000000000006,0.0,9.564998366001349e-13,0.0,0.0,4.0992850140005776e-13,0.0,0.0,0.0,0.0,1.0,1.0,1000.0,100000000.0,0.3
1270,2,0.39333283333333335,0.023333333333333334,-0.49999999999999967,0.0,0.0,0.0,0.0,0.0,0.0,0.0,0.0,0.0,1.0,1.0,1000.0,100000000.0,0.3
1271,2,0.39333283333333335,0.026666666666666665,-0.49999999999999967,0.0,0.0,0.0,0.0,0.0,0.0,0.0,0.0,0.0,1.0,1.0,1000.0,100000000.0,0.3
1272,2,0.39666616666666665,0.023333333333333334,-0.49999999999999967,0.0,0.0,0.0,0.0,0.0,0.0,0.0,0.0,0.0,1.0,1.0,1000.0,100000000.0,0.3
1273,2,0.39666616666666665,0.026666666666666665,-0.49999999999999967,0.0,0.0,0.0,0.0,0.0,0.0,0.0,0.0,0.0,1.0,1.0,1000.0,100000000.0,0.3
1274,2,0.39333283333333335,0.03333333333333333,-0.4999999999999995,0.0,0.0,0.0,0.0,0.0,0.0,0.0,0.0,0.0,1.0,1.0,1000.0,100000000.0,0.3
1275,2,0.39333283333333335,0.03666666666666667,-0.49999999999999944,0.0,0.0,0.0,0.0,0.0,0.0,0.0,0.0,0.0,1.0,1.0,1000.0,100000000.0,0.3
1276,2,0.39666616666666665,0.03333333333333333,-0.49999999999999944,0.0,0.0,0.0,0.0,0.0,0.0,0.0,0.0,0.0,1.0,1.0,1000.0,100000000.0,0.3
1277,2,0.39666616666666665,0.03666666666666667,-0.4999999999999995,0.0,0.0,0.0,0.0,0.0,0.0,0.0,0.0,0.0,1.0,1.0,1000.0,100000000.0,0.3
1278,2,0.39333283333333335,0.04333333333333333,-0.4999999999999994,0.0,-4.782499183000674e-13,0.0,0.0,-2.0496425070002888e-13,0.0,0.0,0.0,0.0,1.0,1.0,1000.0,100000000.0,0.3
1279,2,0.39333283333333335,0.04666666666666667,-0.49999999999999944,0.0,0.0,0.0,0.0,0.0,0.0,0.0,0.0,0.0,1.0,1.0,1000.0,100000000.0,0.3
1280,2,0.39666616666666665,0.04333333333333333,-0.49999999999999944,0.0,-4.782499183000674e-13,0.0,0.0,-2.0496425070002888e-13,0.0,0.0,0.0,0.0,1.0,1.0,1000.0,100000000.0,0.3
1281,2,0.39666616666666665,0.04666666666666667,-0.4999999999999995,0.0,0.0,0.0,0.0,0.0,0.0,0.0,0.0,0.0,1.0,1.0,1000.0,100000000.0,0.3
1282,2,0.39333283333333335,0.05333333333333333,-0.49999999999999983,0.0,0.0,0.0,0.0,0.0,0.0,0.0,0.0,0.0,1.0,1.0,1000.0,100000000.0,0.3
1283,2,0.39333283333333335,0.05666666666666667,-0.4999999999999998,0.0,0.0,0.0,0.0,0.0,0.0,0.0,0.0,0.0,1.0,1.0,1000.0,100000000.0,0.3
1284,2,0.39666616666666665,0.05333333333333333,-0.4999999999999998,0.0,0.0,0.0,0.0,0.0,0.0,0.0,0.0,0.0,1.0,1.0,1000.0,100000000.0,0.3
1285,2,0.39666616666666665,0.05666666666666667,-0.49999999999999983,0.0,0.0,0.0,0.0,0.0,0.0,0.0,0.0,0.0,1.0,1.0,1000.0,100000000.0,0.3
1286,2,0.39333283333333335,0.06333333333333332,-0.49999999999999906,0.0,4.782499183000674e-13,0.0,0.0,2.0496425070002888e-13,0.0,0.0,0.0,0.0,1.0,1.0,1000.0,100000000.0,0.3
1287,2,0.39333283333333335,0.06666666666666667,-0.4999999999999991,0.0,0.0,0.0,0.0,0.0,0.0,0.0,0.0,0.0,1.0,1.0,1000.0,100000000.0,0.3
1288,2,0.39666616666666665,0.06333333333333332,-0.4999999999999991,0.0,4.782499183000674e-13,0.0,0.0,2.0496425070002888e-13,0.0,0.0,0.0,0.0,1.0,1.0,1000.0,100000000.0,0.3
1289,2,0.39666616666666665,0.06666666666666667,-0.4999999999999991,0.0,0.0,0.0,0.0,0.0,0.0,0.0,0.0,0.0,1.0,1.0,1000.0,100000000.0,0.3
1290,2,0.39333283333333335,0.07333333333333333,-0.49999999999999983,0.0,0.0,0.0,0.0,0.0,0.0,0.0,0.0,0.0,1.0,1.0,1000.0,100000000.0,0.3
1291,2,0.39333283333333335,0.07666666666666667,-0.4999999999999998,0.0,0.0,0.0,0.0,0.0,0.0,0.0,0.0,0.0,1.0,1.0,1000.0,100000000.0,0.3
1292,2,0.39666616666666665,0.07333333333333333,-0.4999999999999998,0.0,0.0,0.0,0.0,0.0,0.0,0.0,0.0,0.0,1.0,1.0,1000.0,100000000.0,0.3
1293,2,0.39666616666666665,0.07666666666666667,-0.49999999999999983,0.0,0.0,0.0,0.0,0.0,0.0,0.0,0.0,0.0,1.0,1.0,1000.0,100000000.0,0.3
1294,2,0.39333283333333335,0.08333333333333334,-0.4999999999999998,0.0,0.0,0.0,0.0,0.0,0.0,0.0,0.0,0.0,1.0,1.0,1000.0,100000000.0,0.3
1295,2,0.39333283333333335,0.08666666666666666,-0.4999999999999998,0.0,0.0,0.0,0.0,0.0,0.0,0.0,0.0,0.0,1.0,1.0,1000.0,100000000.0,0.3
1296,2,0.39666616666666665,0.08333333333333334,-0.4999999999999998,0.0,0.0,0.0,0.0,0.0,0.0,0.0,0.0,0.0,1.0,1.0,1000.0,100000000.0,0.3
1297,2,0.39666616666666665,0.08666666666666666,-0.4999999999999998,0.0,0.0,0.0,0.0,0.0,0.0,0.0,0.0,0.0,1.0,1.0,1000.0,100000000.0,0.3
1298,2,0.39333283333333335,0.09333333333333334,-0.4999999999999991,0.0,0.0,0.0,0.0,0.0,0.0,0.0,0.0,0.0,1.0,1.0,1000.0,100000000.0,0.3
1299,2,0.39333283333333335,0.09666666666666666,-0.4999999999999991,0.0,0.0,0.0,0.0,0.0,0.0,0.0,0.0,0.0,1.0,1.0,1000.0,100000000.0,0.3
1300,2,0.39666616666666665,0.09333333333333334,-0.4999999999999991,0.0,0.0,0.0,0.0,0.0,0.0,0.0,0.0,0.0,1.0,1.0,1000.0,100000000.0,0.3
1301,2,0.39666616666666665,0.09666666666666666,-0.4999999999999991,0.0,0.0,0.0,0.0,0.0,0.0,0.0,0.0,0.0,1.0,1.0,1000.0,100000000.0,0.3
1302,2,0.39333283333333335,0.10333333333333335,-0.4999999999999998,0.0,0.0,0.0,0.0,0.0,0.0,0.0,0.0,0.0,1.0,1.0,1000.0,100000000.0,0.3
1303,2,0.39333283333333335,0.10666666666666666,-0.4999999999999998,0.0,0.0,0.0,0.0,0.0,0.0,0.0,0.0,0.0,1.0,1.0,1000.0,100000000.0,0.3
1304,2,0.39666616666666665,0.10333333333333335,-0.4999999999999998,0.0,0.0,0.0,0.0,0.0,0.0,0.0,0.0,0.0,1.0,1.0,1000.0,100000000.0,0.3
1305,2,0.39666616666666665,0.10666666666666666,-0.4999999999999998,0.0,0.0,0.0,0.0,0.0,0.0,0.0,0.0,0.0,1.0,1.0,1000.0,100000000.0,0.3
1306,2,0.39333283333333335,0.11333333333333334,-0.4999999999999998,0.0,0.0,0.0,0.0,0.0,0.0,0.0,0.0,0.0,1.0,1.0,1000.0,100000000.0,0.3
1307,2,0.39333283333333335,0.11666666666666667,-0.4999999999999998,0.0,0.0,0.0,0.0,0.0,0.0,0.0,0.0,0.0,1.0,1.0,1000.0,100000000.0,0.3
1308,2,0.39666616666666665,0.11333333333333334,-0.4999999999999998,0.0,0.0,0.0,0.0,0.0,0.0,0.0,0.0,0.0,1.0,1.0,1000.0,100000000.0,0.3
1309,2,0.39666616666666665,0.11666666666666667,-0.49999999999999983,0.0,0.0,0.0,0.0,0.0,0.0,0.0,0.0,0.0,1.0,1.0,1000.0,100000000.0,0.3
1310,2,0.39333283333333335,0.12333333333333334,-0.4999999999999991,0.0,0.0,0.0,0.0,0.0,0.0,0.0,0.0,0.0,1.0,1.0,1000.0,100000000.0,0.3
1311,2,0.39333283333333335,0.12666666666666665,-0.4999999999999991,0.0,0.0,0.0,0.0,0.0,0.0,0.0,0.0,0.0,1.0,1.0,1000.0,100000000.0,0.3
1312,2,0.39666616666666665,0.12333333333333334,-0.4999999999999991,0.0,0.0,0.0,0.0,0.0,0.0,0.0,0.0,0.0,1.0,1.0,1000.0,100000000.0,0.3
1313,2,0.39666616666666665,0.12666666666666665,-0.4999999999999991,0.0,0.0,0.0,0.0,0.0,0.0,0.0,0.0,0.0,1.0,1.0,1000.0,100000000.0,0.3
1314,2,0.39333283333333335,0.13333333333333333,-0.49999999999999906,0.0,4.782499183000674e-13,0.0,0.0,2.0496425070002888e-13,0.0,0.0,0.0,0.0,1.0,1.0,1000.0,100000000.0,0.3
1315,2,0.39333283333333335,0.13666666666666666,-0.4999999999999991,0.0,0.0,0.0,0.0,0.0,0.0,0.0,0.0,0.0,1.0,1.0,1000.0,100000000.0,0.3
1316,2,0.39666616666666665,0.13333333333333333,-0.4999999999999991,0.0,4.782499183000674e-13,0.0,0.0,2.0496425070002888e-13,0.0,0.0,0.0,0.0,1.0,1.0,1000.0,100000000.0,0.3
1317,2,0.39666616666666665,0.13666666666666666,-0.4999999999999991,0.0,0.0,0.0,0.0,0.0,0.0,0.0,0.0,0.0,1.0,1.0,1000.0,100000000.0,0.3
1318,2,0.39333283333333335,0.14333333333333334,-0.5000000000000006,0.0,0.0,0.0,0.0,0.0,0.0,0.0,0.0,0.0,1.0,1.0,1000.0,100000000.0,0.3
1319,2,0.39333283333333335,0.14666666666666667,-0.5000000000000004,0.0,0.0,0.0,0.0,0.0,0.0,0.0,0.0,0.0,1.0,1.0,1000.0,100000000.0,0.3
1320,2,0.39666616666666665,0.14333333333333334,-0.5000000000000004,0.0,0.0,0.0,0.0,0.0,0.0,0.0,0.0,0.0,1.0,1.0,1000.0,100000000.0,0.3
1321,2,0.39666616666666665,0.14666666666666667,-0.5000000000000004,0.0,0.0,0.0,0.0,0.0,0.0,0.0,0.0,0.0,1.0,1.0,1000.0,100000000.0,0.3
1322,2,0.39333283333333335,0.15333333333333335,-0.4999999999999991,0.0,0.0,0.0,0.0,0.0,0.0,0.0,0.0,0.0,1.0,1.0,1000.0,100000000.0,0.3
1323,2,0.39333283333333335,0.15666666666666668,-0.4999999999999991,0.0,9.564998366001349e-13,0.0,0.0,4.0992850140005776e-13,0.0,0.0,0.0,0.0,1.0,1.0,1000.0,100000000.0,0.3
1324,2,0.39666616666666665,0.15333333333333335,-0.4999999999999991,0.0,0.0,0.0,0.0,0.0,0.0,0.0,0.0,0.0,1.0,1.0,1000.0,100000000.0,0.3
1325,2,0.39666616666666665,0.15666666666666668,-0.49999999999999906,0.0,9.564998366001349e-13,0.0,0.0,4.0992850140005776e-13,0.0,0.0,0.0,0.0,1.0,1.0,1000.0,100000000.0,0.3
1326,2,0.39333283333333335,0.16333333333333333,-0.49999999999999906,0.0,4.782499183000674e-13,0.0,0.0,2.0496425070002888e-13,0.0,0.0,0.0,0.0,1.0,1.0,1000.0,100000000.0,0.3
1327,2,0.39333283333333335,0.16666666666666669,-0.4999999999999991,0.0,9.564998366001349e-13,0.0,0.0,4.0992850140005776e-13,0.0,0.0,0.0,0.0,1.0,1.0,1000.0,100000000.0,0.3
1328,2,0.39666616666666665,0.16333333333333333,-0.4999999999999991,0.0,4.782499183000674e-13,0.0,0.0,2.0496425070002888e-13,0.0,0.0,0.0,0.0,1.0,1.0,1000.0,100000000.0,0.3
1329,2,0.39666616666666665,0.16666666666666669,-0.49999999999999906,0.0,9.564998366001349e-13,0.0,0.0,4.0992850140005776e-13,0.0,0.0,0.0,0.0,1.0,1.0,1000.0,100000000.0,0.3
1330,2,0.39333283333333335,0.1733333333333333,-0.5000000000000006,0.0,4.782499183000674e-13,0.0,0.0,2.0496425070002888e-13,0.0,0.0,0.0,0.0,1.0,1.0,1000.0,100000000.0,0.3
1331,2,0.39333283333333335,0.1766666666666667,-0.5000000000000006,0.0,9.564998366001349e-13,0.0,0.0,4.0992850140005776e-13,0.0,0.0,0.0,0.0,1.0,1.0,1000.0,100000000.0,0.3
1332,2,0.39666616666666665,0.1733333333333333,-0.5000000000000006,0.0,4.782499183000674e-13,0.0,0.0,2.0496425070002888e-13,0.0,0.0,0.0,0.0,1.0,1.0,1000.0,100000000.0,0.3
1333,2,0.39666616666666665,0.1766666666666667,-0.5000000000000006,0.0,9.564998366001349e-13,0.0,0.0,4.0992850140005776e-13,0.0,0.0,0.0,0.0,1.0,1.0,1000.0,100000000.0,0.3
1334,2,0.40333283333333336,0.026666666666666665,-0.49999999999999967,0.0,0.0,0.0,0.0,0.0,0.0,0.0,0.0,0.0,1.0,1.0,1000.0,100000000.0,0.3
1335,2,0.40666616666666666,0.026666666666666665,-0.49999999999999967,0.0,0.0,0.0,0.0,0.0,0.0,0.0,0.0,0.0,1.0,1.0,1000.0,100000000.0,0.3
1336,2,0.40333283333333336,0.03333333333333333,-0.4999999999999995,0.0,0.0,0.0,0.0,0.0,0.0,0.0,0.0,0.0,1.0,1.0,1000.0,100000000.0,0.3
1337,2,0.40333283333333336,0.03666666666666667,-0.49999999999999944,0.0,0.0,0.0,0.0,0.0,0.0,0.0,0.0,0.0,1.0,1.0,1000.0,100000000.0,0.3
1338,2,0.40666616666666666,0.03333333333333333,-0.49999999999999944,0.0,0.0,0.0,0.0,0.0,0.0,0.0,0.0,0.0,1.0,1.0,1000.0,100000000.0,0.3
1339,2,0.40666616666666666,0.03666666666666667,-0.4999999999999995,0.0,0.0,0.0,0.0,0.0,0.0,0.0,0.0,0.0,1.0,1.0,1000.0,100000000.0,0.3
1340,2,0.40333283333333336,0.04333333333333333,-0.4999999999999994,0.0,-4.782499183000674e-13,0.0,0.0,-2.0496425070002888e-13,0.0,0.0,0.0,0.0,1.0,1.0,1000.0,100000000.0,0.3
1341,2,0.40333283333333336,0.04666666666666667,-0.49999999999999944,0.0,0.0,0.0,0.0,0.0,0.0,0.0,0.0,0.0,1.0,1.0,1000.0,100000000.0,0.3
1342,2,0.40666616666666666,0.04333333333333333,-0.49999999999999944,0.0,-4.782499183000674e-13,0.0,0.0,-2.0496425070002888e-13,0.0,0.0,0.0,0.0,1.0,1.0,1000.0,100000000.0,0.3
1343,2,0.40666616666666666,0.04666666666666667,-0.4999999999999995,0.0,0.0,0.0,0.0,0.0,0.0,0.0,0.0,0.0,1.0,1.0,1000.0,100000000.0,0.3
1344,2,0.40333283333333336,0.05333333333333333,-0.49999999999999983,0.0,0.0,0.0,0.0,0.0,0.0,0.0,0.0,0.0,1.0,1.0,1000.0,100000000.0,0.3
1345,2,0.40333283333333336,0.05666666666666667,-0.4999999999999998,0.0,0.0,0.0,0.0,0.0,0.0,0.0,0.0,0.0,1.0,1.0,1000.0,100000000.0,0.3
1346,2,0.40666616666666666,0.05333333333333333,-0.4999999999999998,0.0,0.0,0.0,0.0,0.0,0.0,0.0,0.0,0.0,1.0,1.0,1000.0,100000000.0,0.3
1347,2,0.40666616666666666,0.05666666666666667,-0.49999999999999983,0.0,0.0,0.0,0.0,0.0,0.0,0.0,0.0,0.0,1.0,1.0,1000.0,100000000.0,0.3
1348,2,0.40333283333333336,0.06333333333333332,-0.49999999999999906,0.0,4.782499183000674e-13,0.0,0.0,2.0496425070002888e-13,0.0,0.0,0.0,0.0,1.0,1.0,1000.0,100000000.0,0.3
1349,2,0.40333283333333336,0.06666666666666667,-0.4999999999999991,0.0,0.0,0.0,0.0,0.0,0.0,0.0,0.0,0.0,1.0,1.0,1000.0,100000000.0,0.3
1350,2,0.40666616666666666,0.06333333333333332,-0.4999999999999991,0.0,4.782499183000674e-13,0.0,0.0,2.0496425070002888e-13,0.0,0.0,0.0,0.0,1.0,1.0,1000.0,100000000.0,0.3
1351,2,0.40666616666666666,0.06666666666666667,-0.4999999999999991,0.0,0.0,0.0,0.0,0.0,0.0,0.0,0.0,0.0,1.0,1.0,1000.0,100000000.0,0.3
1352,2,0.40333283333333336,0.07333333333333333,-0.49999999999999983,0.0,0.0,0.0,0.0,0.0,0.0,0.0,0.0,0.0,1.0,1.0,1000.0,100000000.0,0.3
1353,2,0.40333283333333336,0.07666666666666667,-0.4999999999999998,0.0,0.0,0.0,0.0,0.0,0.0,0.0,0.0,0.0,1.0,1.0,1000.0,100000000.0,0.3
1354,2,0.40666616666666666,0.07333333333333333,-0.4999999999999998,0.0,0.0,0.0,0.0,0.0,0.0,0.0,0.0,0.0,1.0,1.0,1000.0,100000000.0,0.3
1355,2,0.40666616666666666,0.07666666666666667,-0.49999999999999983,0.0,0.0,0.0,0.0,0.0,0.0,0.0,0.0,0.0,1.0,1.0,1000.0,100000000.0,0.3
1356,2,0.40333283333333336,0.08333333333333334,-0.4999999999999998,0.0,0.0,0.0,0.0,0.0,0.0,0.0,0.0,0.0,1.0,1.0,1000.0,100000000.0,0.3
1357,2,0.40333283333333336,0.08666666666666666,-0.4999999999999998,0.0,0.0,0.0,0.0,0.0,0.0,0.0,0.0,0.0,1.0,1.0,1000.0,100000000.0,0.3
1358,2,0.40666616666666666,0.08333333333333334,-0.4999999999999998,0.0,0.0,0.0,0.0,0.0,0.0,0.0,0.0,0.0,1.0,1.0,1000.0,100000000.0,0.3
1359,2,0.40666616666666666,0.08666666666666666,-0.4999999999999998,0.0,0.0,0.0,0.0,0.0,0.0,0.0,0.0,0.0,1.0,1.0,1000.0,100000000.0,0.3
1360,2,0.40333283333333336,0.09333333333333334,-0.4999999999999991,0.0,0.0,0.0,0.0,0.0,0.0,0.0,0.0,0.0,1.0,1.0,1000.0,100000000.0,0.3
1361,2,0.40333283333333336,0.09666666666666666,-0.4999999999999991,0.0,0.0,0.0,0.0,0.0,0.0,0.0,0.0,0.0,1.0,1.0,1000.0,100000000.0,0.3
1362,2,0.40666616666666666,0.09333333333333334,-0.4999999999999991,0.0,0.0,0.0,0.0,0.0,0.0,0.0,0.0,0.0,1.0,1.0,1000.0,100000000.0,0.3
1363,2,0.40666616666666666,0.09666666666666666,-0.4999999999999991,0.0,0.0,0.0,0.0,0.0,0.0,0.0,0.0,0.0,1.0,1.0,1000.0,100000000.0,0.3
1364,2,0.40333283333333336,0.10333333333333335,-0.4999999999999998,0.0,0.0,0.0,0.0,0.0,0.0,0.0,0.0,0.0,1.0,1.0,1000.0,100000000.0,0.3
1365,2,0.40333283333333336,0.10666666666666666,-0.4999999999999998,0.0,0.0,0.0,0.0,0.0,0.0,0.0,0.0,0.0,1.0,1.0,1000.0,100000000.0,0.3
1366,2,0.40666616666666666,0.10333333333333335,-0.4999999999999998,0.0,0.0,0.0,0.0,0.0,0.0,0.0,0.0,0.0,1.0,1.0,1000.0,100000000.0,0.3
1367,2,0.40666616666666666,0.10666666666666666,-0.4999999999999998,0.0,0.0,0.0,0.0,0.0,0.0,0.0,0.0,0.0,1.0,1.0,1000.0,100000000.0,0.3
1368,2,0.40333283333333336,0.11333333333333334,-0.4999999999999998,0.0,0.0,0.0,0.0,0.0,0.0,0.0,0.0,0.0,1.0,1.0,1000.0,100000000.0,0.3
1369,2,0.40333283333333336,0.11666666666666667,-0.4999999999999998,0.0,0.0,0.0,0.0,0.0,0.0,0.0,0.0,0.0,1.0,1.0,1000.0,100000000.0,0.3
1370,2,0.40666616666666666,0.11333333333333334,-0.4999999999999998,0.0,0.0,0.0,0.0,0.0,0.0,0.0,0.0,0.0,1.0,1.0,1000.0,100000000.0,0.3
1371,2,0.40666616666666666,0.11666666666666667,-0.49999999999999983,0.0,0.0,0.0,0.0,0.0,0.0,0.0,0.0,0.0,1.0,1.0,1000.0,100000000.0,0.3
1372,2,0.40333283333333336,0.12333333333333334,-0.4999999999999991,0.0,0.0,0.0,0.0,0.0,0.0,0.0,0.0,0.0,1.0,1.0,1000.0,100000000.0,0.3
1373,2,0.40333283333333336,0.12666666666666665,-0.4999999999999991,0.0,0.0,0.0,0.0,0.0,0.0,0.0,0.0,0.0,1.0,1.0,1000.0,100000000.0,0.3
1374,2,0.40666616666666666,0.12333333333333334,-0.4999999999999991,0.0,0.0,0.0,0.0,0.0,0.0,0.0,0.0,0.0,1.0,1.0,1000.0,100000000.0,0.3
1375,2,0.40666616666666666,0.12666666666666665,-0.4999999999999991,0.0,0.0,0.0,0.0,0.0,0.0,0.0,0.0,0.0,1.0,1.0,1000.0,100000000.0,0.3
1376,2,0.40333283333333336,0.13333333333333333,-0.49999999999999906,0.0,4.782499183000674e-13,0.0,0.0,2.0496425070002888e-13,0.0,0.0,0.0,0.0,1.0,1.0,1000.0,100000000.0,0.3
1377,2,0.40333283333333336,0.13666666666666666,-0.4999999999999991,0.0,0.0,0.0,0.0,0.0,0.0,0.0,0.0,0.0,1.0,1.0,1000.0,100000000.0,0.3
1378,2,0.40666616666666666,0.13333333333333333,-0.4999999999999991,0.0,4.782499183000674e-13,0.0,0.0,2.0496425070002888e-13,0.0,0.0,0.0,0.0,1.0,1.0,1000.0,100000000.0,0.3
1379,2,0.40666616666666666,0.13666666666666666,-0.4999999999999991,0.0,0.0,0.0,0.0,0.0,0.0,0.0,0.0,0.0,1.0,1.0,1000.0,100000000.0,0.3
1380,2,0.40333283333333336,0.14333333333333334,-0.5000000000000006,0.0,0.0,0.0,0.0,0.0,0.0,0.0,0.0,0.0,1.0,1.0,1000.0,100000000.0,0.3
1381,2,0.40333283333333336,0.14666666666666667,-0.5000000000000004,0.0,0.0,0.0,0.0,0.0,0.0,0.0,0.0,0.0,1.0,1.0,1000.0,100000000.0,0.3
1382,2,0.40666616666666666,0.14333333333333334,-0.5000000000000004,0.0,0.0,0.0,0.0,0.0,0.0,0.0,0.0,0.0,1.0,1.0,1000.0,100000000.0,0.3
1383,2,0.40666616666666666,0.14666666666666667,-0.5000000000000004,0.0,0.0,0.0,0.0,0.0,0.0,0.0,0.0,0.0,1.0,1.0,1000.0,100000000.0,0.3
1384,2,0.40333283333333336,0.15333333333333335,-0.4999999999999991,0.0,0.0,0.0,0.0,0.0,0.0,0.0,0.0,0.0,1.0,1.0,1000.0,100000000.0,0.3
1385,2,0.40333283333333336,0.15666666666666668,-0.4999999999999991,0.0,9.564998366001349e-13,0.0,0.0,4.0992850140005776e-13,0.0,0.0,0.0,0.0,1.0,1.0,1000.0,100000000.0,0.3
1386,2,0.40666616666666666,0.15333333333333335,-0.4999999999999991,0.0,0.0,0.0,0.0,0.0,0.0,0.0,0.0,0.0,1.0,1.0,1000.0,100000000.0,0.3
1387,2,0.40666616666666666,0.15666666666666668,-0.49999999999999906,0.0,9.564998366001349e-13,0.0,0.0,4.0992850140005776e-13,0.0,0.0,0.0,0.0,1.0,1.0,1000.0,100000000.0,0.3
1388,2,0.40333283333333336,0.16333333333333333,-0.49999999999999906,0.0,4.782499183000674e-13,0.0,0.0,2.0496425070002888e-13,0.0,0.0,0.0,0.0,1.0,1.0,1000.0,100000000.0,0.3
1389,2,0.40333283333333336,0.16666666666666669,-0.4999999999999991,0.0,9.564998366001349e-13,0.0,0.0,4.0992850140005776e-13,0.0,0.0,0.0,0.0,1.0,1.0,1000.0,100000000.0,0.3
1390,2,0.40666616666666666,0.16333333333333333,-0.4999999999999991,0.0,4.782499183000674e-13,0.0,0.0,2.0496425070002888e-13,0.0,0.0,0.0,0.0,1.0,1.0,1000.0,100000000.0,0.3
1391,2,0.40666616666666666,0.16666666666666669,-0.49999999999999906,0.0,9.564998366001349e-13,0.0,0.0,4.0992850140005776e-13,0.0,0.0,0.0,0.0,1.0,1.0,1000.0,100000000.0,0.3
1392,2,0.40333283333333336,0.1733333333333333,-0.5000000000000006,0.0,4.782499183000674e-13,0.0,0.0,2.0496425070002888e-13,0.0,0.0,0.0,0.0,1.0,1.0,1000.0,100000000.0,0.3
1393,2,0.40666616666666666,0.1733333333333333,-0.5000000000000006,0.0,4.782499183000674e-13,0.0,0.0,2.0496425070002888e-13,0.0,0.0,0.0,0.0,1.0,1.0,1000.0,100000000.0,0.3
1394,2,0.41333283333333337,0.03333333333333333,-0.5000000000000022,0.0,0.0,0.0,0.0,0.0,0.0,0.0,0.0,0.0,1.0,1.0,1000.0,100000000.0,0.3
1395,2,0.41333283333333337,0.03666666666666667,-0.5000000000000022,0.0,0.0,0.0,0.0,0.0,0.0,0.0,0.0,0.0,1.0,1.0,1000.0,100000000.0,0.3
1396,2,0.4166661666666666,0.03333333333333333,-0.5000000000000023,0.0,0.0,0.0,0.0,0.0,0.0,0.0,0.0,0.0,1.0,1.0,1000.0,100000000.0,0.3
1397,2,0.4166661666666666,0.03666666666666667,-0.5000000000000022,0.0,0.0,0.0,0.0,0.0,0.0,0.0,0.0,0.0,1.0,1.0,1000.0,100000000.0,0.3
1398,2,0.41333283333333337,0.04333333333333333,-0.5000000000000022,0.0,-4.782499183000674e-13,0.0,0.0,-2.0496425070002888e-13,0.0,0.0,0.0,0.0,1.0,1.0,1000.0,100000000.0,0.3
1399,2,0.41333283333333337,0.04666666666666667,-0.5000000000000022,0.0,0.0,0.0,0.0,0.0,0.0,0.0,0.0,0.0,1.0,1.0,1000.0,100000000.0,0.3
1400,2,0.4166661666666666,0.04333333333333333,-0.5000000000000022,0.0,-4.782499183000674e-13,0.0,0.0,-2.0496425070002888e-13,0.0,0.0,0.0,0.0,1.0,1.0,1000.0,100000000.0,0.3
1401,2,0.4166661666666666,0.04666666666666667,-0.5000000000000022,0.0,0.0,0.0,0.0,0.0,0.0,0.0,0.0,0.0,1.0,1.0,1000.0,100000000.0,0.3
1402,2,0.41333283333333337,0.05333333333333333,-0.5000000000000026,0.0,0.0,0.0,0.0,0.0,0.0,0.0,0.0,0.0,1.0,1.0,1000.0,100000000.0,0.3
1403,2,0.41333283333333337,0.05666666666666667,-0.5000000000000027,0.0,0.0,0.0,0.0,0.0,0.0,0.0,0.0,0.0,1.0,1.0,1000.0,100000000.0,0.3
1404,2,0.4166661666666666,0.05333333333333333,-0.5000000000000027,0.0,0.0,0.0,0.0,0.0,0.0,0.0,0.0,0.0,1.0,1.0,1000.0,100000000.0,0.3
1405,2,0.4166661666666666,0.05666666666666667,-0.5000000000000027,0.0,0.0,0.0,0.0,0.0,0.0,0.0,0.0,0.0,1.0,1.0,1000.0,100000000.0,0.3
1406,2,0.41333283333333337,0.06333333333333332,-0.5000000000000019,0.0,4.782499183000674e-13,0.0,0.0,2.0496425070002888e-13,0.0,0.0,0.0,0.0,1.0,1.0,1000.0,100000000.0,0.3
1407,2,0.41333283333333337,0.06666666666666667,-0.5000000000000019,0.0,0.0,0.0,0.0,0.0,0.0,0.0,0.0,0.0,1.0,1.0,1000.0,100000000.0,0.3
1408,2,0.4166661666666666,0.06333333333333332,-0.5000000000000019,0.0,4.782499183000674e-13,0.0,0.0,2.0496425070002888e-13,0.0,0.0,0.0,0.0,1.0,1.0,1000.0,100000000.0,0.3
1409,2,0.4166661666666666,0.06666666666666667,-0.5000000000000019,0.0,0.0,0.0,0.0,0.0,0.0,0.0,0.0,0.0,1.0,1.0,1000.0,100000000.0,0.3
1410,2,0.41333283333333337,0.07333333333333333,-0.5000000000000026,0.0,0.0,0.0,0.0,0.0,0.0,0.0,0.0,0.0,1.0,1.0,1000.0,100000000.0,0.3
1411,2,0.41333283333333337,0.07666666666666667,-0.5000000000000027,0.0,0.0,0.0,0.0,0.0,0.0,0.0,0.0,0.0,1.0,1.0,1000.0,100000000.0,0.3
1412,2,0.4166661666666666,0.07333333333333333,-0.5000000000000027,0.0,0.0,0.0,0.0,0.0,0.0,0.0,0.0,0.0,1.0,1.0,1000.0,100000000.0,0.3
1413,2,0.4166661666666666,0.07666666666666667,-0.5000000000000027,0.0,0.0,0.0,0.0,0.0,0.0,0.0,0.0,0.0,1.0,1.0,1000.0,100000000.0,0.3
1414,2,0.41333283333333337,0.08333333333333334,-0.5000000000000026,0.0,0.0,0.0,0.0,0.0,0.0,0.0,0.0,0.0,1.0,1.0,1000.0,100000000.0,0.3
1415,2,0.41333283333333337,0.08666666666666666,-0.5000000000000026,0.0,0.0,0.0,0.0,0.0,0.0,0.0,0.0,0.0,1.0,1.0,1000.0,100000000.0,0.3
1416,2,0.4166661666666666,0.08333333333333334,-0.5000000000000026,0.0,0.0,0.0,0.0,0.0,0.0,0.0,0.0,0.0,1.0,1.0,1000.0,100000000.0,0.3
1417,2,0.4166661666666666,0.08666666666666666,-0.5000000000000026,0.0,0.0,0.0,0.0,0.0,0.0,0.0,0.0,0.0,1.0,1.0,1000.0,100000000.0,0.3
1418,2,0.41333283333333337,0.09333333333333334,-0.5000000000000019,0.0,0.0,0.0,0.0,0.0,0.0,0.0,0.0,0.0,1.0,1.0,1000.0,100000000.0,0.3
1419,2,0.41333283333333337,0.09666666666666666,-0.5000000000000019,0.0,0.0,0.0,0.0,0.0,0.0,0.0,0.0,0.0,1.0,1.0,1000.0,100000000.0,0.3
1420,2,0.4166661666666666,0.09333333333333334,-0.5000000000000019,0.0,0.0,0.0,0.0,0.0,0.0,0.0,0.0,0.0,1.0,1.0,1000.0,100000000.0,0.3
1421,2,0.4166661666666666,0.09666666666666666,-0.5000000000000019,0.0,0.0,0.0,0.0,0.0,0.0,0.0,0.0,0.0,1.0,1.0,1000.0,100000000.0,0.3
1422,2,0.41333283333333337,0.10333333333333335,-0.5000000000000026,0.0,0.0,0.0,0.0,0.0,0.0,0.0,0.0,0.0,1.0,1.0,1000.0,100000000.0,0.3
1423,2,0.41333283333333337,0.10666666666666666,-0.5000000000000026,0.0,0.0,0.0,0.0,0.0,0.0,0.0,0.0,0.0,1.0,1.0,1000.0,100000000.0,0.3
1424,2,0.4166661666666666,0.10333333333333335,-0.5000000000000026,0.0,0.0,0.0,0.0,0.0,0.0,0.0,0.0,0.0,1.0,1.0,1000.0,100000000.0,0.3
1425,2,0.4166661666666666,0.10666666666666666,-0.5000000000000026,0.0,0.0,0.0,0.0,0.0,0.0,0.0,0.0,0.0,1.0,1.0,1000.0,100000000.0,0.3
1426,2,0.41333283333333337,0.11333333333333334,-0.5000000000000026,0.0,0.0,0.0,0.0,0.0,0.0,0.0,0.0,0.0,1.0,1.0,1000.0,100000000.0,0.3
1427,2,0.41333283333333337,0.11666666666666667,-0.5000000000000027,0.0,0.0,0.0,0.0,0.0,0.0,0.0,0.0,0.0,1.0,1.0,1000.0,100000000.0,0.3
1428,2,0.4166661666666666,0.11333333333333334,-0.5000000000000026,0.0,0.0,0.0,0.0,0.0,0.0,0.0,0.0,0.0,1.0,1.0,1000.0,100000000.0,0.3
1429,2,0.4166661666666666,0.11666666666666667,-0.5000000000000027,0.0,0.0,0.0,0.0,0.0,0.0,0.0,0.0,0.0,1.0,1.0,1000.0,100000000.0,0.3
1430,2,0.41333283333333337,0.12333333333333334,-0.5000000000000019,0.0,0.0,0.0,0.0,0.0,0.0,0.0,0.0,0.0,1.0,1.0,1000.0,100000000.0,0.3
1431,2,0.41333283333333337,0.12666666666666665,-0.5000000000000019,0.0,0.0,0.0,0.0,0.0,0.0,0.0,0.0,0.0,1.0,1.0,1000.0,100000000.0,0.3
1432,2,0.4166661666666666,0.12333333333333334,-0.5000000000000019,0.0,0.0,0.0,0.0,0.0,0.0,0.0,0.0,0.0,1.0,1.0,1000.0,100000000.0,0.3
1433,2,0.4166661666666666,0.12666666666666665,-0.5000000000000019,0.0,0.0,0.0,0.0,0.0,0.0,0.0,0.0,0.0,1.0,1.0,1000.0,100000000.0,0.3
1434,2,0.41333283333333337,0.13333333333333333,-0.5000000000000019,0.0,4.782499183000674e-13,0.0,0.0,2.0496425070002888e-13,0.0,0.0,0.0,0.0,1.0,1.0,1000.0,100000000.0,0.3
1435,2,0.41333283333333337,0.13666666666666666,-0.5000000000000019,0.0,0.0,0.0,0.0,0.0,0.0,0.0,0.0,0.0,1.0,1.0,1000.0,100000000.0,0.3
1436,2,0.4166661666666666,0.13333333333333333,-0.5000000000000019,0.0,4.782499183000674e-13,0.0,0.0,2.0496425070002888e-13,0.0,0.0,0.0,0.0,1.0,1.0,1000.0,100000000.0,0.3
1437,2,0.4166661666666666,0.13666666666666666,-0.5000000000000019,0.0,0.0,0.0,0.0,0.0,0.0,0.0,0.0,0.0,1.0,1.0,1000.0,100000000.0,0.3
1438,2,0.41333283333333337,0.14333333333333334,-0.5000000000000032,0.0,0.0,0.0,0.0,0.0,0.0,0.0,0.0,0.0,1.0,1.0,1000.0,100000000.0,0.3
1439,2,0.41333283333333337,0.14666666666666667,-0.5000000000000033,0.0,0.0,0.0,0.0,0.0,0.0,0.0,0.0,0.0,1.0,1.0,1000.0,100000000.0,0.3
1440,2,0.4166661666666666,0.14333333333333334,-0.5000000000000033,0.0,0.0,0.0,0.0,0.0,0.0,0.0,0.0,0.0,1.0,1.0,1000.0,100000000.0,0.3
1441,2,0.4166661666666666,0.14666666666666667,-0.5000000000000033,0.0,0.0,0.0,0.0,0.0,0.0,0.0,0.0,0.0,1.0,1.0,1000.0,100000000.0,0.3
1442,2,0.41333283333333337,0.15333333333333335,-0.5000000000000019,0.0,0.0,0.0,0.0,0.0,0.0,0.0,0.0,0.0,1.0,1.0,1000.0,100000000.0,0.3
1443,2,0.41333283333333337,0.15666666666666668,-0.5000000000000019,0.0,9.564998366001349e-13,0.0,0.0,4.0992850140005776e-13,0.0,0.0,0.0,0.0,1.0,1.0,1000.0,100000000.0,0.3
1444,2,0.4166661666666666,0.15333333333333335,-0.5000000000000019,0.0,0.0,0.0,0.0,0.0,0.0,0.0,0.0,0.0,1.0,1.0,1000.0,100000000.0,0.3
1445,2,0.4166661666666666,0.15666666666666668,-0.5000000000000019,0.0,9.564998366001349e-13,0.0,0.0,4.0992850140005776e-13,0.0,0.0,0.0,0.0,1.0,1.0,1000.0,100000000.0,0.3
1446,2,0.41333283333333337,0.16333333333333333,-0.5000000000000019,0.0,4.782499183000674e-13,0.0,0.0,2.0496425070002888e-13,0.0,0.0,0.0,0.0,1.0,1.0,1000.0,100000000.0,0.3
1447,2,0.41333283333333337,0.16666666666666669,-0.5000000000000019,0.0,9.564998366001349e-13,0.0,0.0,4.0992850140005776e-13,0.0,0.0,0.0,0.0,1.0,1.0,1000.0,100000000.0,0.3
1448,2,0.4166661666666666,0.16333333333333333,-0.5000000000000019,0.0,4.782499183000674e-13,0.0,0.0,2.0496425070002888e-13,0.0,0.0,0.0,0.0,1.0,1.0,1000.0,100000000.0,0.3
1449,2,0.4166661666666666,0.16666666666666669,-0.5000000000000019,0.0,9.564998366001349e-13,0.0,0.0,4.0992850140005776e-13,0.0,0.0,0.0,0.0,1.0,1.0,1000.0,100000000.0,0.3
1450,2,0.4233328333333333,0.03333333333333333,-0.4999999999999995,0.0,0.0,0.0,0.0,0.0,0.0,0.0,0.0,0.0,1.0,1.0,1000.0,100000000.0,0.3
1451,2,0.4233328333333333,0.03666666666666667,-0.49999999999999944,0.0,0.0,0.0,0.0,0.0,0.0,0.0,0.0,0.0,1.0,1.0,1000.0,100000000.0,0.3
1452,2,0.4266661666666666,0.03666666666666667,-0.4999999999999995,0.0,0.0,0.0,0.0,0.0,0.0,0.0,0.0,0.0,1.0,1.0,1000.0,100000000.0,0.3
1453,2,0.4233328333333333,0.04333333333333333,-0.4999999999999994,0.0,-4.782499183000674e-13,0.0,0.0,-2.0496425070002888e-13,0.0,0.0,0.0,0.0,1.0,1.0,1000.0,100000000.0,0.3
1454,2,0.4233328333333333,0.04666666666666667,-0.49999999999999944,0.0,0.0,0.0,0.0,0.0,0.0,0.0,0.0,0.0,1.0,1.0,1000.0,100000000.0,0.3
1455,2,0.4266661666666666,0.04333333333333333,-0.49999999999999944,0.0,-4.782499183000674e-13,0.0,0.0,-2.0496425070002888e-13,0.0,0.0,0.0,0.0,1.0,1.0,1000.0,100000000.0,0.3
1456,2,0.4266661666666666,0.04666666666666667,-0.4999999999999995,0.0,0.0,0.0,0.0,0.0,0.0,0.0,0.0,0.0,1.0,1.0,1000.0,100000000.0,0.3
1457,2,0.4233328333333333,0.05333333333333333,-0.49999999999999983,0.0,0.0,0.0,0.0,0.0,0.0,0.0,0.0,0.0,1.0,1.0,1000.0,100000000.0,0.3
1458,2,0.4233328333333333,0.05666666666666667,-0.4999999999999998,0.0,0.0,0.0,0.0,0.0,0.0,0.0,0.0,0.0,1.0,1.0,1000.0,100000000.0,0.3
1459,2,0.4266661666666666,0.05333333333333333,-0.4999999999999998,0.0,0.0,0.0,0.0,0.0,0.0,0.0,0.0,0.0,1.0,1.0,1000.0,100000000.0,0.3
1460,2,0.4266661666666666,0.05666666666666667,-0.49999999999999983,0.0,0.0,0.0,0.0,0.0,0.0,0.0,0.0,0.0,1.0,1.0,1000.0,100000000.0,0.3
1461,2,0.4233328333333333,0.06333333333333332,-0.49999999999999906,0.0,4.782499183000674e-13,0.0,0.0,2.0496425070002888e-13,0.0,0.0,0.0,0.0,1.0,1.0,1000.0,100000000.0,0.3
1462,2,0.4233328333333333,0.06666666666666667,-0.4999999999999991,0.0,0.0,0.0,0.0,0.0,0.0,0.0,0.0,0.0,1.0,1.0,1000.0,100000000.0,0.3
1463,2,0.4266661666666666,0.06333333333333332,-0.4999999999999991,0.0,4.782499183000674e-13,0.0,0.0,2.0496425070002888e-13,0.0,0.0,0.0,0.0,1.0,1.0,1000.0,100000000.0,0.3
1464,2,0.4266661666666666,0.06666666666666667,-0.4999999999999991,0.0,0.0,0.0,0.0,0.0,0.0,0.0,0.0,0.0,1.0,1.0,1000.0,100000000.0,0.3
1465,2,0.4233328333333333,0.07333333333333333,-0.49999999999999983,0.0,0.0,0.0,0.0,0.0,0.0,0.0,0.0,0.0,1.0,1.0,1000.0,100000000.0,0.3
1466,2,0.4233328333333333,0.07666666666666667,-0.4999999999999998,0.0,0.0,0.0,0.0,0.0,0.0,0.0,0.0,0.0,1.0,1.0,1000.0,100000000.0,0.3
1467,2,0.4266661666666666,0.07333333333333333,-0.4999999999999998,0.0,0.0,0.0,0.0,0.0,0.0,0.0,0.0,0.0,1.0,1.0,1000.0,100000000.0,0.3
1468,2,0.4266661666666666,0.07666666666666667,-0.49999999999999983,0.0,0.0,0.0,0.0,0.0,0.0,0.0,0.0,0.0,1.0,1.0,1000.0,100000000.0,0.3
1469,2,0.4233328333333333,0.08333333333333334,-0.4999999999999998,0.0,0.0,0.0,0.0,0.0,0.0,0.0,0.0,0.0,1.0,1.0,1000.0,100000000.0,0.3
1470,2,0.4233328333333333,0.08666666666666666,-0.4999999999999998,0.0,0.0,0.0,0.0,0.0,0.0,0.0,0.0,0.0,1.0,1.0,1000.0,100000000.0,0.3
1471,2,0.4266661666666666,0.08333333333333334,-0.4999999999999998,0.0,0.0,0.0,0.0,0.0,0.0,0.0,0.0,0.0,1.0,1.0,1000.0,100000000.0,0.3
1472,2,0.4266661666666666,0.08666666666666666,-0.4999999999999998,0.0,0.0,0.0,0.0,0.0,0.0,0.0,0.0,0.0,1.0,1.0,1000.0,100000000.0,0.3
1473,2,0.4233328333333333,0.09333333333333334,-0.4999999999999991,0.0,0.0,0.0,0.0,0.0,0.0,0.0,0.0,0.0,1.0,1.0,1000.0,100000000.0,0.3
1474,2,0.4233328333333333,0.09666666666666666,-0.4999999999999991,0.0,0.0,0.0,0.0,0.0,0.0,0.0,0.0,0.0,1.0,1.0,1000.0,100000000.0,0.3
1475,2,0.4266661666666666,0.09333333333333334,-0.4999999999999991,0.0,0.0,0.0,0.0,0.0,0.0,0.0,0.0,0.0,1.0,1.0,1000.0,100000000.0,0.3
1476,2,0.4266661666666666,0.09666666666666666,-0.4999999999999991,0.0,0.0,0.0,0.0,0.0,0.0,0.0,0.0,0.0,1.0,1.0,1000.0,100000000.0,0.3
1477,2,0.4233328333333333,0.10333333333333335,-0.4999999999999998,0.0,0.0,0.0,0.0,0.0,0.0,0.0,0.0,0.0,1.0,1.0,1000.0,100000000.0,0.3
1478,2,0.4233328333333333,0.10666666666666666,-0.4999999999999998,0.0,0.0,0.0,0.0,0.0,0.0,0.0,0.0,0.0,1.0,1.0,1000.0,100000000.0,0.3
1479,2,0.4266661666666666,0.10333333333333335,-0.4999999999999998,0.0,0.0,0.0,0.0,0.0,0.0,0.0,0.0,0.0,1.0,1.0,1000.0,100000000.0,0.3
1480,2,0.4266661666666666,0.10666666666666666,-0.4999999999999998,0.0,0.0,0.0,0.0,0.0,0.0,0.0,0.0,0.0,1.0,1.0,1000.0,100000000.0,0.3
1481,2,0.4233328333333333,0.11333333333333334,-0.4999999999999998,0.0,0.0,0.0,0.0,0.0,0.0,0.0,0.0,0.0,1.0,1.0,1000.0,100000000.0,0.3
1482,2,0.4233328333333333,0.11666666666666667,-0.4999999999999998,0.0,0.0,0.0,0.0,0.0,0.0,0.0,0.0,0.0,1.0,1.0,1000.0,100000000.0,0.3
1483,2,0.4266661666666666,0.11333333333333334,-0.4999999999999998,0.0,0.0,0.0,0.0,0.0,0.0,0.0,0.0,0.0,1.0,1.0,1000.0,100000000.0,0.3
1484,2,0.4266661666666666,0.11666666666666667,-0.49999999999999983,0.0,0.0,0.0,0.0,0.0,0.0,0.0,0.0,0.0,1.0,1.0,1000.0,100000000.0,0.3
1485,2,0.4233328333333333,0.12333333333333334,-0.4999999999999991,0.0,0.0,0.0,0.0,0.0,0.0,0.0,0.0,0.0,1.0,1.0,1000.0,100000000.0,0.3
1486,2,0.4233328333333333,0.12666666666666665,-0.4999999999999991,0.0,0.0,0.0,0.0,0.0,0.0,0.0,0.0,0.0,1.0,1.0,1000.0,100000000.0,0.3
1487,2,0.4266661666666666,0.12333333333333334,-0.4999999999999991,0.0,0.0,0.0,0.0,0.0,0.0,0.0,0.0,0.0,1.0,1.0,1000.0,100000000.0,0.3
1488,2,0.4266661666666666,0.12666666666666665,-0.4999999999999991,0.0,0.0,0.0,0.0,0.0,0.0,0.0,0.0,0.0,1.0,1.0,1000.0,100000000.0,0.3
1489,2,0.4233328333333333,0.13333333333333333,-0.49999999999999906,0.0,4.782499183000674e-13,0.0,0.0,2.0496425070002888e-13,0.0,0.0,0.0,0.0,1.0,1.0,1000.0,100000000.0,0.3
1490,2,0.4233328333333333,0.13666666666666666,-0.4999999999999991,0.0,0.0,0.0,0.0,0.0,0.0,0.0,0.0,0.0,1.0,1.0,1000.0,100000000.0,0.3
1491,2,0.4266661666666666,0.13333333333333333,-0.4999999999999991,0.0,4.782499183000674e-13,0.0,0.0,2.0496425070002888e-13,0.0,0.0,0.0,0.0,1.0,1.0,1000.0,100000000.0,0.3
1492,2,0.4266661666666666,0.13666666666666666,-0.4999999999999991,0.0,0.0,0.0,0.0,0.0,0.0,0.0,0.0,0.0,1.0,1.0,1000.0,100000000.0,0.3
1493,2,0.4233328333333333,0.14333333333333334,-0.5000000000000006,0.0,0.0,0.0,0.0,0.0,0.0,0.0,0.0,0.0,1.0,1.0,1000.0,100000000.0,0.3
1494,2,0.4233328333333333,0.14666666666666667,-0.5000000000000004,0.0,0.0,0.0,0.0,0.0,0.0,0.0,0.0,0.0,1.0,1.0,1000.0,100000000.0,0.3
1495,2,0.4266661666666666,0.14333333333333334,-0.5000000000000004,0.0,0.0,0.0,0.0,0.0,0.0,0.0,0.0,0.0,1.0,1.0,1000.0,100000000.0,0.3
1496,2,0.4266661666666666,0.14666666666666667,-0.5000000000000004,0.0,0.0,0.0,0.0,0.0,0.0,0.0,0.0,0.0,1.0,1.0,1000.0,100000000.0,0.3
1497,2,0.4233328333333333,0.15333333333333335,-0.4999999999999991,0.0,0.0,0.0,0.0,0.0,0.0,0.0,0.0,0.0,1.0,1.0,1000.0,100000000.0,0.3
1498,2,0.4233328333333333,0.15666666666666668,-0.4999999999999991,0.0,9.564998366001349e-13,0.0,0.0,4.0992850140005776e-13,0.0,0.0,0.0,0.0,1.0,1.0,1000.0,100000000.0,0.3
1499,2,0.4266661666666666,0.15333333333333335,-0.4999999999999991,0.0,0.0,0.0,0.0,0.0,0.0,0.0,0.0,0.0,1.0,1.0,1000.0,100000000.0,0.3
1500,2,0.4266661666666666,0.15666666666666668,-0.49999999999999906,0.0,9.564998366001349e-13,0.0,0.0,4.0992850140005776e-13,0.0,0.0,0.0,0.0,1.0,1.0,1000.0,100000000.0,0.3
1501,2,0.4233328333333333,0.16333333333333333,-0.49999999999999906,0.0,4.782499183000674e-13,0.0,0.0,2.0496425070002888e-13,0.0,0.0,0.0,0.0,1.0,1.0,1000.0,100000000.0,0.3
1502,2,0.4233328333333333,0.16666666666666669,-0.4999999999999991,0.0,9.564998366001349e-13,0.0,0.0,4.0992850140005776e-13,0.0,0.0,0.0,0.0,1.0,1.0,1000.0,100000000.0,0.3
1503,2,0.4266661666666666,0.16333333333333333,-0.4999999999999991,0.0,4.782499183000674e-13,0.0,0.0,2.0496425070002888e-13,0.0,0.0,0.0,0.0,1.0,1.0,1000.0,100000000.0,0.3
1504,2,0.43333283333333333,0.04333333333333333,-0.4999999999999994,0.0,-4.782499183000674e-13,0.0,0.0,-2.0496425070002888e-13,0.0,0.0,0.0,0.0,1.0,1.0,1000.0,100000000.0,0.3
1505,2,0.43333283333333333,0.04666666666666667,-0.49999999999999944,0.0,0.0,0.0,0.0,0.0,0.0,0.0,0.0,0.0,1.0,1.0,1000.0,100000000.0,0.3
1506,2,0.43666616666666663,0.04666666666666667,-0.4999999999999995,0.0,0.0,0.0,0.0,0.0,0.0,0.0,0.0,0.0,1.0,1.0,1000.0,100000000.0,0.3
1507,2,0.43333283333333333,0.05333333333333333,-0.49999999999999983,0.0,0.0,0.0,0.0,0.0,0.0,0.0,0.0,0.0,1.0,1.0,1000.0,100000000.0,0.3
1508,2,0.43333283333333333,0.05666666666666667,-0.4999999999999998,0.0,0.0,0.0,0.0,0.0,0.0,0.0,0.0,0.0,1.0,1.0,1000.0,100000000.0,0.3
1509,2,0.43666616666666663,0.05333333333333333,-0.4999999999999998,0.0,0.0,0.0,0.0,0.0,0.0,0.0,0.0,0.0,1.0,1.0,1000.0,100000000.0,0.3
1510,2,0.43666616666666663,0.05666666666666667,-0.49999999999999983,0.0,0.0,0.0,0.0,0.0,0.0,0.0,0.0,0.0,1.0,1.0,1000.0,100000000.0,0.3
1511,2,0.43333283333333333,0.06333333333333332,-0.49999999999999906,0.0,4.782499183000674e-13,0.0,0.0,2.0496425070002888e-13,0.0,0.0,0.0,0.0,1.0,1.0,1000.0,100000000.0,0.3
1512,2,0.43333283333333333,0.06666666666666667,-0.4999999999999991,0.0,0.0,0.0,0.0,0.0,0.0,0.0,0.0,0.0,1.0,1.0,1000.0,100000000.0,0.3
1513,2,0.43666616666666663,0.06333333333333332,-0.4999999999999991,0.0,4.782499183000674e-13,0.0,0.0,2.0496425070002888e-13,0.0,0.0,0.0,0.0,1.0,1.0,1000.0,100000000.0,0.3
1514,2,0.43666616666666663,0.06666666666666667,-0.4999999999999991,0.0,0.0,0.0,0.0,0.0,0.0,0.0,0.0,0.0,1.0,1.0,1000.0,100000000.0,0.3
1515,2,0.43333283333333333,0.07333333333333333,-0.49999999999999983,0.0,0.0,0.0,0.0,0.0,0.0,0.0,0.0,0.0,1.0,1.0,1000.0,100000000.0,0.3
1516,2,0.43333283333333333,0.07666666666666667,-0.4999999999999998,0.0,0.0,0.0,0.0,0.0,0.0,0.0,0.0,0.0,1.0,1.0,1000.0,100000000.0,0.3
1517,2,0.43666616666666663,0.07333333333333333,-0.4999999999999998,0.0,0.0,0.0,0.0,0.0,0.0,0.0,0.0,0.0,1.0,1.0,1000.0,100000000.0,0.3
1518,2,0.43666616666666663,0.07666666666666667,-0.49999999999999983,0.0,0.0,0.0,0.0,0.0,0.0,0.0,0.0,0.0,1.0,1.0,1000.0,100000000.0,0.3
1519,2,0.43333283333333333,0.08333333333333334,-0.4999999999999998,0.0,0.0,0.0,0.0,0.0,0.0,0.0,0.0,0.0,1.0,1.0,1000.0,100000000.0,0.3
1520,2,0.43333283333333333,0.08666666666666666,-0.4999999999999998,0.0,0.0,0.0,0.0,0.0,0.0,0.0,0.0,0.0,1.0,1.0,1000.0,100000000.0,0.3
1521,2,0.43666616666666663,0.08333333333333334,-0.4999999999999998,0.0,0.0,0.0,0.0,0.0,0.0,0.0,0.0,0.0,1.0,1.0,1000.0,100000000.0,0.3
1522,2,0.43666616666666663,0.08666666666666666,-0.4999999999999998,0.0,0.0,0.0,0.0,0.0,0.0,0.0,0.0,0.0,1.0,1.0,1000.0,100000000.0,0.3
1523,2,0.43333283333333333,0.09333333333333334,-0.4999999999999991,0.0,0.0,0.0,0.0,0.0,0.0,0.0,0.0,0.0,1.0,1.0,1000.0,100000000.0,0.3
1524,2,0.43333283333333333,0.09666666666666666,-0.4999999999999991,0.0,0.0,0.0,0.0,0.0,0.0,0.0,0.0,0.0,1.0,1.0,1000.0,100000000.0,0.3
1525,2,0.43666616666666663,0.09333333333333334,-0.4999999999999991,0.0,0.0,0.0,0.0,0.0,0.0,0.0,0.0,0.0,1.0,1.0,1000.0,100000000.0,0.3
1526,2,0.43666616666666663,0.09666666666666666,-0.4999999999999991,0.0,0.0,0.0,0.0,0.0,0.0,0.0,0.0,0.0,1.0,1.0,1000.0,100000000.0,0.3
1527,2,0.43333283333333333,0.10333333333333335,-0.4999999999999998,0.0,0.0,0.0,0.0,0.0,0.0,0.0,0.0,0.0,1.0,1.0,1000.0,100000000.0,0.3
1528,2,0.43333283333333333,0.10666666666666666,-0.4999999999999998,0.0,0.0,0.0,0.0,0.0,0.0,0.0,0.0,0.0,1.0,1.0,1000.0,100000000.0,0.3
1529,2,0.43666616666666663,0.10333333333333335,-0.4999999999999998,0.0,0.0,0.0,0.0,0.0,0.0,0.0,0.0,0.0,1.0,1.0,1000.0,100000000.0,0.3
1530,2,0.43666616666666663,0.10666666666666666,-0.4999999999999998,0.0,0.0,0.0,0.0,0.0,0.0,0.0,0.0,0.0,1.0,1.0,1000.0,100000000.0,0.3
1531,2,0.43333283333333333,0.11333333333333334,-0.4999999999999998,0.0,0.0,0.0,0.0,0.0,0.0,0.0,0.0,0.0,1.0,1.0,1000.0,100000000.0,0.3
1532,2,0.43333283333333333,0.11666666666666667,-0.4999999999999998,0.0,0.0,0.0,0.0,0.0,0.0,0.0,0.0,0.0,1.0,1.0,1000.0,100000000.0,0.3
1533,2,0.43666616666666663,0.11333333333333334,-0.4999999999999998,0.0,0.0,0.0,0.0,0.0,0.0,0.0,0.0,0.0,1.0,1.0,1000.0,100000000.0,0.3
1534,2,0.43666616666666663,0.11666666666666667,-0.49999999999999983,0.0,0.0,0.0,0.0,0.0,0.0,0.0,0.0,0.0,1.0,1.0,1000.0,100000000.0,0.3
1535,2,0.43333283333333333,0.12333333333333334,-0.4999999999999991,0.0,0.0,0.0,0.0,0.0,0.0,0.0,0.0,0.0,1.0,1.0,1000.0,100000000.0,0.3
1536,2,0.43333283333333333,0.12666666666666665,-0.4999999999999991,0.0,0.0,0.0,0.0,0.0,0.0,0.0,0.0,0.0,1.0,1.0,1000.0,100000000.0,0.3
1537,2,0.43666616666666663,0.12333333333333334,-0.4999999999999991,0.0,0.0,0.0,0.0,0.0,0.0,0.0,0.0,0.0,1.0,1.0,1000.0,100000000.0,0.3
1538,2,0.43666616666666663,0.12666666666666665,-0.4999999999999991,0.0,0.0,0.0,0.0,0.0,0.0,0.0,0.0,0.0,1.0,1.0,1000.0,100000000.0,0.3
1539,2,0.43333283333333333,0.13333333333333333,-0.49999999999999906,0.0,4.782499183000674e-13,0.0,0.0,2.0496425070002888e-13,0.0,0.0,0.0,0.0,1.0,1.0,1000.0,100000000.0,0.3
1540,2,0.43333283333333333,0.13666666666666666,-0.4999999999999991,0.0,0.0,0.0,0.0,0.0,0.0,0.0,0.0,0.0,1.0,1.0,1000.0,100000000.0,0.3
1541,2,0.43666616666666663,0.13333333333333333,-0.4999999999999991,0.0,4.782499183000674e-13,0.0,0.0,2.0496425070002888e-13,0.0,0.0,0.0,0.0,1.0,1.0,1000.0,100000000.0,0.3
1542,2,0.43666616666666663,0.13666666666666666,-0.4999999999999991,0.0,0.0,0.0,0.0,0.0,0.0,0.0,0.0,0.0,1.0,1.0,1000.0,100000000.0,0.3
1543,2,0.43333283333333333,0.14333333333333334,-0.5000000000000006,0.0,0.0,0.0,0.0,0.0,0.0,0.0,0.0,0.0,1.0,1.0,1000.0,100000000.0,0.3
1544,2,0.43333283333333333,0.14666666666666667,-0.5000000000000004,0.0,0.0,0.0,0.0,0.0,0.0,0.0,0.0,0.0,1.0,1.0,1000.0,100000000.0,0.3
1545,2,0.43666616666666663,0.14333333333333334,-0.5000000000000004,0.0,0.0,0.0,0.0,0.0,0.0,0.0,0.0,0.0,1.0,1.0,1000.0,100000000.0,0.3
1546,2,0.43666616666666663,0.14666666666666667,-0.5000000000000004,0.0,0.0,0.0,0.0,0.0,0.0,0.0,0.0,0.0,1.0,1.0,1000.0,100000000.0,0.3
1547,2,0.43333283333333333,0.15333333333333335,-0.4999999999999991,0.0,0.0,0.0,0.0,0.0,0.0,0.0,0.0,0.0,1.0,1.0,1000.0,100000000.0,0.3
1548,2,0.43333283333333333,0.15666666666666668,-0.4999999999999991,0.0,9.564998366001349e-13,0.0,0.0,4.0992850140005776e-13,0.0,0.0,0.0,0.0,1.0,1.0,1000.0,100000000.0,0.3
1549,2,0.43666616666666663,0.15333333333333335,-0.4999999999999991,0.0,0.0,0.0,0.0,0.0,0.0,0.0,0.0,0.0,1.0,1.0,1000.0,100000000.0,0.3
1550,2,0.44333283333333334,0.05333333333333333,-0.49999999999999983,0.0,0.0,0.0,0.0,0.0,0.0,0.0,0.0,0.0,1.0,1.0,1000.0,100000000.0,0.3
1551,2,0.44333283333333334,0.05666666666666667,-0.4999999999999998,0.0,0.0,0.0,0.0,0.0,0.0,0.0,0.0,0.0,1.0,1.0,1000.0,100000000.0,0.3
1552,2,0.44666616666666664,0.05666666666666667,-0.49999999999999983,0.0,0.0,0.0,0.0,0.0,0.0,0.0,0.0,0.0,1.0,1.0,1000.0,100000000.0,0.3
1553,2,0.44333283333333334,0.06333333333333332,-0.49999999999999906,0.0,4.782499183000674e-13,0.0,0.0,2.0496425070002888e-13,0.0,0.0,0.0,0.0,1.0,1.0,1000.0,100000000.0,0.3
1554,2,0.44333283333333334,0.06666666666666667,-0.4999999999999991,0.0,0.0,0.0,0.0,0.0,0.0,0.0,0.0,0.0,1.0,1.0,1000.0,100000000.0,0.3
1555,2,0.44666616666666664,0.06333333333333332,-0.4999999999999991,0.0,4.782499183000674e-13,0.0,0.0,2.0496425070002888e-13,0.0,0.0,0.0,0.0,1.0,1.0,1000.0,100000000.0,0.3
1556,2,0.44666616666666664,0.06666666666666667,-0.4999999999999991,0.0,0.0,0.0,0.0,0.0,0.0,0.0,0.0,0.0,1.0,1.0,1000.0,100000000.0,0.3
1557,2,0.44333283333333334,0.07333333333333333,-0.49999999999999983,0.0,0.0,0.0,0.0,0.0,0.0,0.0,0.0,0.0,1.0,1.0,1000.0,100000000.0,0.3
1558,2,0.44333283333333334,0.07666666666666667,-0.4999999999999998,0.0,0.0,0.0,0.0,0.0,0.0,0.0,0.0,0.0,1.0,1.0,1000.0,100000000.0,0.3
1559,2,0.44666616666666664,0.07333333333333333,-0.4999999999999998,0.0,0.0,0.0,0.0,0.0,0.0,0.0,0.0,0.0,1.0,1.0,1000.0,100000000.0,0.3
1560,2,0.44666616666666664,0.07666666666666667,-0.49999999999999983,0.0,0.0,0.0,0.0,0.0,0.0,0.0,0.0,0.0,1.0,1.0,1000.0,100000000.0,0.3
1561,2,0.44333283333333334,0.08333333333333334,-0.4999999999999998,0.0,0.0,0.0,0.0,0.0,0.0,0.0,0.0,0.0,1.0,1.0,1000.0,100000000.0,0.3
1562,2,0.44333283333333334,0.08666666666666666,-0.4999999999999998,0.0,0.0,0.0,0.0,0.0,0.0,0.0,0.0,0.0,1.0,1.0,1000.0,100000000.0,0.3
1563,2,0.44666616666666664,0.08333333333333334,-0.4999999999999998,0.0,0.0,0.0,0.0,0.0,0.0,0.0,0.0,0.0,1.0,1.0,1000.0,100000000.0,0.3
1564,2,0.44666616666666664,0.08666666666666666,-0.4999999999999998,0.0,0.0,0.0,0.0,0.0,0.0,0.0,0.0,0.0,1.0,1.0,1000.0,100000000.0,0.3
1565,2,0.44333283333333334,0.09333333333333334,-0.4999999999999991,0.0,0.0,0.0,0.0,0.0,0.0,0.0,0.0,0.0,1.0,1.0,1000.0,100000000.0,0.3
1566,2,0.44333283333333334,0.09666666666666666,-0.4999999999999991,0.0,0.0,0.0,0.0,0.0,0.0,0.0,0.0,0.0,1.0,1.0,1000.0,100000000.0,0.3
1567,2,0.44666616666666664,0.09333333333333334,-0.4999999999999991,0.0,0.0,0.0,0.0,0.0,0.0,0.0,0.0,0.0,1.0,1.0,1000.0,100000000.0,0.3
1568,2,0.44666616666666664,0.09666666666666666,-0.4999999999999991,0.0,0.0,0.0,0.0,0.0,0.0,0.0,0.0,0.0,1.0,1.0,1000.0,100000000.0,0.3
1569,2,0.44333283333333334,0.10333333333333335,-0.4999999999999998,0.0,0.0,0.0,0.0,0.0,0.0,0.0,0.0,0.0,1.0,1.0,1000.0,100000000.0,0.3
1570,2,0.44333283333333334,0.10666666666666666,-0.4999999999999998,0.0,0.0,0.0,0.0,0.0,0.0,0.0,0.0,0.0,1.0,1.0,1000.0,100000000.0,0.3
1571,2,0.44666616666666664,0.10333333333333335,-0.4999999999999998,0.0,0.0,0.0,0.0,0.0,0.0,0.0,0.0,0.0,1.0,1.0,1000.0,100000000.0,0.3
1572,2,0.44666616666666664,0.10666666666666666,-0.4999999999999998,0.0,0.0,0.0,0.0,0.0,0.0,0.0,0.0,0.0,1.0,1.0,1000.0,100000000.0,0.3
1573,2,0.44333283333333334,0.11333333333333334,-0.4999999999999998,0.0,0.0,0.0,0.0,0.0,0.0,0.0,0.0,0.0,1.0,1.0,1000.0,100000000.0,0.3
1574,2,0.44333283333333334,0.11666666666666667,-0.4999999999999998,0.0,0.0,0.0,0.0,0.0,0.0,0.0,0.0,0.0,1.0,1.0,1000.0,100000000.0,0.3
1575,2,0.44666616666666664,0.11333333333333334,-0.4999999999999998,0.0,0.0,0.0,0.0,0.0,0.0,0.0,0.0,0.0,1.0,1.0,1000.0,100000000.0,0.3
1576,2,0.44666616666666664,0.11666666666666667,-0.49999999999999983,0.0,0.0,0.0,0.0,0.0,0.0,0.0,0.0,0.0,1.0,1.0,1000.0,100000000.0,0.3
1577,2,0.44333283333333334,0.12333333333333334,-0.4999999999999991,0.0,0.0,0.0,0.0,0.0,0.0,0.0,0.0,0.0,1.0,1.0,1000.0,100000000.0,0.3
1578,2,0.44333283333333334,0.12666666666666665,-0.4999999999999991,0.0,0.0,0.0,0.0,0.0,0.0,0.0,0.0,0.0,1.0,1.0,1000.0,100000000.0,0.3
1579,2,0.44666616666666664,0.12333333333333334,-0.4999999999999991,0.0,0.0,0.0,0.0,0.0,0.0,0.0,0.0,0.0,1.0,1.0,1000.0,100000000.0,0.3
1580,2,0.44666616666666664,0.12666666666666665,-0.4999999999999991,0.0,0.0,0.0,0.0,0.0,0.0,0.0,0.0,0.0,1.0,1.0,1000.0,100000000.0,0.3
1581,2,0.44333283333333334,0.13333333333333333,-0.49999999999999906,0.0,4.782499183000674e-13,0.0,0.0,2.0496425070002888e-13,0.0,0.0,0.0,0.0,1.0,1.0,1000.0,100000000.0,0.3
1582,2,0.44333283333333334,0.13666666666666666,-0.4999999999999991,0.0,0.0,0.0,0.0,0.0,0.0,0.0,0.0,0.0,1.0,1.0,1000.0,100000000.0,0.3
1583,2,0.44666616666666664,0.13333333333333333,-0.4999999999999991,0.0,4.782499183000674e-13,0.0,0.0,2.0496425070002888e-13,0.0,0.0,0.0,0.0,1.0,1.0,1000.0,100000000.0,0.3
1584,2,0.44666616666666664,0.13666666666666666,-0.4999999999999991,0.0,0.0,0.0,0.0,0.0,0.0,0.0,0.0,0.0,1.0,1.0,1000.0,100000000.0,0.3
1585,2,0.44333283333333334,0.14333333333333334,-0.5000000000000006,0.0,0.0,0.0,0.0,0.0,0.0,0.0,0.0,0.0,1.0,1.0,1000.0,100000000.0,0.3
1586,2,0.44333283333333334,0.14666666666666667,-0.5000000000000004,0.0,0.0,0.0,0.0,0.0,0.0,0.0,0.0,0.0,1.0,1.0,1000.0,100000000.0,0.3
1587,2,0.44666616666666664,0.14333333333333334,-0.5000000000000004,0.0,0.0,0.0,0.0,0.0,0.0,0.0,0.0,0.0,1.0,1.0,1000.0,100000000.0,0.3
1588,2,0.45333283333333335,0.07333333333333333,-0.49999999999999983,0.0,0.0,0.0,0.0,0.0,0.0,0.0,0.0,0.0,1.0,1.0,1000.0,100000000.0,0.3
1589,2,0.45333283333333335,0.07666666666666667,-0.4999999999999998,0.0,0.0,0.0,0.0,0.0,0.0,0.0,0.0,0.0,1.0,1.0,1000.0,100000000.0,0.3
1590,2,0.45333283333333335,0.08333333333333334,-0.4999999999999998,0.0,0.0,0.0,0.0,0.0,0.0,0.0,0.0,0.0,1.0,1.0,1000.0,100000000.0,0.3
1591,2,0.45333283333333335,0.08666666666666666,-0.4999999999999998,0.0,0.0,0.0,0.0,0.0,0.0,0.0,0.0,0.0,1.0,1.0,1000.0,100000000.0,0.3
1592,2,0.45666616666666665,0.08333333333333334,-0.4999999999999998,0.0,0.0,0.0,0.0,0.0,0.0,0.0,0.0,0.0,1.0,1.0,1000.0,100000000.0,0.3
1593,2,0.45666616666666665,0.08666666666666666,-0.4999999999999998,0.0,0.0,0.0,0.0,0.0,0.0,0.0,0.0,0.0,1.0,1.0,1000.0,100000000.0,0.3
1594,2,0.45333283333333335,0.09333333333333334,-0.4999999999999991,0.0,0.0,0.0,0.0,0.0,0.0,0.0,0.0,0.0,1.0,1.0,1000.0,100000000.0,0.3
1595,2,0.45333283333333335,0.09666666666666666,-0.4999999999999991,0.0,0.0,0.0,0.0,0.0,0.0,0.0,0.0,0.0,1.0,1.0,1000.0,100000000.0,0.3
1596,2,0.45666616666666665,0.09333333333333334,-0.4999999999999991,0.0,0.0,0.0,0.0,0.0,0.0,0.0,0.0,0.0,1.0,1.0,1000.0,100000000.0,0.3
1597,2,0.45666616666666665,0.09666666666666666,-0.4999999999999991,0.0,0.0,0.0,0.0,0.0,0.0,0.0,0.0,0.0,1.0,1.0,1000.0,100000000.0,0.3
1598,2,0.45333283333333335,0.10333333333333335,-0.4999999999999998,0.0,0.0,0.0,0.0,0.0,0.0,0.0,0.0,0.0,1.0,1.0,1000.0,100000000.0,0.3
1599,2,0.45333283333333335,0.10666666666666666,-0.4999999999999998,0.0,0.0,0.0,0.0,0.0,0.0,0.0,0.0,0.0,1.0,1.0,1000.0,100000000.0,0.3
1600,2,0.45666616666666665,0.10333333333333335,-0.4999999999999998,0.0,0.0,0.0,0.0,0.0,0.0,0.0,0.0,0.0,1.0,1.0,1000.0,100000000.0,0.3
1601,2,0.45666616666666665,0.10666666666666666,-0.4999999999999998,0.0,0.0,0.0,0.0,0.0,0.0,0.0,0.0,0.0,1.0,1.0,1000.0,100000000.0,0.3
1602,2,0.45333283333333335,0.11333333333333334,-0.4999999999999998,0.0,0.0,0.0,0.0,0.0,0.0,0.0,0.0,0.0,1.0,1.0,1000.0,100000000.0,0.3
1603,2,0.45333283333333335,0.11666666666666667,-0.4999999999999998,0.0,0.0,0.0,0.0,0.0,0.0,0.0,0.0,0.0,1.0,1.0,1000.0,100000000.0,0.3
1604,2,0.45666616666666665,0.11333333333333334,-0.4999999999999998,0.0,0.0,0.0,0.0,0.0,0.0,0.0,0.0,0.0,1.0,1.0,1000.0,100000000.0,0.3
1605,2,0.45666616666666665,0.11666666666666667,-0.49999999999999983,0.0,0.0,0.0,0.0,0.0,0.0,0.0,0.0,0.0,1.0,1.0,1000.0,100000000.0,0.3
1606,2,0.45333283333333335,0.12333333333333334,-0.4999999999999991,0.0,0.0,0.0,0.0,0.0,0.0,0.0,0.0,0.0,1.0,1.0,1000.0,100000000.0,0.3
1607,2,0.45333283333333335,0.12666666666666665,-0.4999999999999991,0.0,0.0,0.0,0.0,0.0,0.0,0.0,0.0,0.0,1.0,1.0,1000.0,100000000.0,0.3
