particle_id,object_id,pos_x,pos_y,vel_x,vel_y,stress_xx,stress_xy,stress_yx,stress_yy,strain_xx,strain_xy,strain_yx,strain_yy,volume,mass,density,youngs_modulus,poisson_ratio
0,1,0.20002685487270355,0.2224999964237213,-0.0002714394358918071,-1.0539955837884918e-05,378.0146484375,167.85037231445312,-810.7291870117188,1469.133544921875,0.0,0.0,0.0,0.0,2.499999936844688e-05,0.02500000037252903,1000.0,100000000.0,0.30000001192092896
1,1,0.20002688467502594,0.22750000655651093,-0.0002719405747484416,-1.3486837815435138e-05,111.2335433959961,87.98939514160156,-772.8936157226562,1270.3680419921875,0.0,0.0,0.0,0.0,2.499999936844688e-05,0.02500000037252903,1000.0,100000000.0,0.30000001192092896
2,1,0.1950269639492035,0.23749999701976776,-0.00027411564951762557,-1.9450737454462796e-05,385.6356506347656,15.120660781860352,-435.29290771484375,1452.526611328125,0.0,0.0,0.0,0.0,2.499999936844688e-05,0.02500000037252903,1000.0,100000000.0,0.30000001192092896
3,1,0.20002691447734833,0.23250000178813934,-0.000272861827397719,-1.6437154044979252e-05,486.9796142578125,-99.02283477783203,-648.1377563476562,1981.8994140625,0.0,0.0,0.0,0.0,2.499999936844688e-05,0.02500000037252903,1000.0,100000000.0,0.30000001192092896
4,1,0.20002694427967072,0.23749999701976776,-0.0002742038341239095,-1.9390949091757648e-05,62.39983367919922,-83.59119415283203,-436.5098571777344,1666.056884765625,0.0,0.0,0.0,0.0,2.499999936844688e-05,0.02500000037252903,1000.0,100000000.0,0.30000001192092896
5,1,0.19502697885036469,0.24250000715255737,-0.00027543489704839885,-2.239430796180386e-05,459.5019226074219,-305.4211120605469,-204.30259704589844,1692.74365234375,0.0,0.0,0.0,0.0,2.499999936844688e-05,0.02500000037252903,1000.0,100000000.0,0.30000001192092896
6,1,0.19502699375152588,0.2475000023841858,-0.0002769702987279743,-2.518910878279712e-05,361.4805603027344,-244.70840454101562,-18.945070266723633,1619.68896484375,0.0,0.0,0.0,0.0,2.499999936844688e-05,0.02500000037252903,1000.0,100000000.0,0.30000001192092896
7,1,0.2000269591808319,0.24250000715255737,-0.00027567180222831666,-2.209178637713194e-05,-124.13259887695312,-334.5968933105469,-227.66307067871094,1591.135009765625,0.0,0.0,0.0,0.0,2.499999936844688e-05,0.02500000037252903,1000.0,100000000.0,0.30000001192092896
8,1,0.2000269740819931,0.2475000023841858,-0.00027726564439944923,-2.4539649530197494e-05,-286.7147216796875,-273.92364501953125,-21.37541389465332,1470.0125732421875,0.0,0.0,0.0,0.0,2.499999936844688e-05,0.02500000037252903,1000.0,100000000.0,0.30000001192092896
9,1,0.1950269639492035,0.2524999976158142,-0.00027869344921782613,-2.7938369385083206e-05,312.9036865234375,-552.6815185546875,177.1085662841797,1604.9599609375,0.0,0.0,0.0,0.0,2.499999936844688e-05,0.02500000037252903,1000.0,100000000.0,0.30000001192092896
10,1,0.1950269639492035,0.2574999928474426,-0.0002806033880915493,-3.0641986086266115e-05,243.0340118408203,-544.1929321289062,383.9190673828125,1553.132568359375,0.0,0.0,0.0,0.0,2.499999936844688e-05,0.02500000037252903,1000.0,100000000.0,0.30000001192092896
11,1,0.20002694427967072,0.2524999976158142,-0.0002789967693388462,-2.688974200282246e-05,-311.0417175292969,-569.920166015625,193.14974975585938,1508.34814453125,0.0,0.0,0.0,0.0,2.499999936844688e-05,0.02500000037252903,1000.0,100000000.0,0.30000001192092896
12,1,0.20002694427967072,0.2574999928474426,-0.0002808643039315939,-2.9141965569579042e-05,-385.8368835449219,-561.6563110351562,415.89825439453125,1452.703369140625,0.0,0.0,0.0,0.0,2.499999936844688e-05,0.02500000037252903,1000.0,100000000.0,0.30000001192092896
13,1,0.1950269341468811,0.26249998807907104,-0.00028272473718971014,-3.34017640852835e-05,-8.13521671295166,-1037.395263671875,659.3798828125,1264.0706787109375,0.0,0.0,0.0,0.0,2.499999936844688e-05,0.02500000037252903,1000.0,100000000.0,0.30000001192092896
14,1,0.20002691447734833,0.26249998807907104,-0.00028291839407756925,-3.1416468118550256e-05,-216.60618591308594,-1048.633056640625,652.5457763671875,1668.005859375,0.0,0.0,0.0,0.0,2.499999936844688e-05,0.02500000037252903,1000.0,100000000.0,0.30000001192092896
15,1,0.20002688467502594,0.26750001311302185,-0.0002851589524652809,-3.371324419276789e-05,-102.43781280517578,-1144.0633544921875,902.833251953125,1752.9285888671875,0.0,0.0,0.0,0.0,2.499999936844688e-05,0.02500000037252903,1000.0,100000000.0,0.30000001192092896
16,1,0.20002682507038116,0.27250000834465027,-0.0002875603677239269,-3.588835534173995e-05,-380.4022216796875,-1045.315185546875,1051.2764892578125,1220.74169921875,0.0,0.0,0.0,0.0,2.499999936844688e-05,0.02500000037252903,1000.0,100000000.0,0.30000001192092896
17,1,0.20002679526805878,0.2775000035762787,-0.00029012435697950423,-3.7942005292279646e-05,37.223670959472656,-931.5678100585938,1098.461669921875,1531.7484130859375,0.0,0.0,0.0,0.0,2.499999936844688e-05,0.02500000037252903,1000.0,100000000.0,0.30000001192092896
18,1,0.2050267606973648,0.2175000011920929,-0.0002704034559428692,-8.004670235095546e-06,474.88494873046875,561.8064575195312,-1127.7294921875,1526.8988037109375,0.0,0.0,0.0,0.0,2.499999936844688e-05,0.02500000037252903,1000.0,100000000.0,0.30000001192092896
19,1,0.21002663671970367,0.21250000596046448,-0.00026918784715235233,-5.483102086145664e-06,850.4558715820312,381.6427917480469,-1321.544189453125,2067.7529296875,0.0,0.0,0.0,0.0,2.499999936844688e-05,0.02500000037252903,1000.0,100000000.0,0.30000001192092896
20,1,0.21002668142318726,0.2175000011920929,-0.00026950641768053174,-8.806728146737441e-06,266.80859375,442.3310852050781,-1180.149658203125,1632.7918701171875,0.0,0.0,0.0,0.0,2.499999936844688e-05,0.02500000037252903,1000.0,100000000.0,0.30000001192092896
21,1,0.2050267904996872,0.2224999964237213,-0.00027085733017884195,-1.1141311915707774e-05,528.1551513671875,69.575927734375,-953.8665161132812,1854.5706787109375,0.0,0.0,0.0,0.0,2.499999936844688e-05,0.02500000037252903,1000.0,100000000.0,0.30000001192092896
22,1,0.20502683520317078,0.22750000655651093,-0.00027154095005244017,-1.3951881555840373e-05,100.7745132446289,-10.23459243774414,-757.6041259765625,1536.762939453125,0.0,0.0,0.0,0.0,2.499999936844688e-05,0.02500000037252903,1000.0,100000000.0,0.30000001192092896
23,1,0.21002672612667084,0.2224999964237213,-0.00027011657948605716,-1.1803788765973877e-05,322.73358154296875,-46.0539436340332,-1015.1795654296875,2040.8995361328125,0.0,0.0,0.0,0.0,2.499999936844688e-05,0.02500000037252903,1000.0,100000000.0,0.30000001192092896
24,1,0.21002675592899323,0.22750000655651093,-0.00027101737214252353,-1.447425256628776e-05,-207.3857879638672,-125.92140197753906,-826.4228515625,1645.940185546875,0.0,0.0,0.0,0.0,2.499999936844688e-05,0.02500000037252903,1000.0,100000000.0,0.30000001192092896
25,1,0.20502685010433197,0.23250000178813934,-0.000272567558567971,-1.6674746802891605e-05,391.2335510253906,-216.89466857910156,-585.431396484375,2196.412353515625,0.0,0.0,0.0,0.0,2.499999936844688e-05,0.02500000037252903,1000.0,100000000.0,0.30000001192092896
26,1,0.20502687990665436,0.23749999701976776,-0.0002739378542173654,-1.930995858856477e-05,-82.05902862548828,-201.4665069580078,-437.43157958984375,1843.7744140625,0.0,0.0,0.0,0.0,2.499999936844688e-05,0.02500000037252903,1000.0,100000000.0,0.30000001192092896
27,1,0.2100267857313156,0.23250000178813934,-0.0002721546625252813,-1.6953084923443384e-05,-93.3902359008789,-339.8111572265625,-641.3651733398438,2108.212890625,0.0,0.0,0.0,0.0,2.499999936844688e-05,0.02500000037252903,1000.0,100000000.0,0.30000001192092896
28,1,0.2100267857313156,0.23749999701976776,-0.00027352909091860056,-1.9240333131165244e-05,-597.3854370117188,-324.37274169921875,-459.8000793457031,1733.058837890625,0.0,0.0,0.0,0.0,2.499999936844688e-05,0.02500000037252903,1000.0,100000000.0,0.30000001192092896
29,1,0.20502687990665436,0.24250000715255737,-0.00027543705073185265,-2.167911225114949e-05,-157.5265655517578,-388.85302734375,-250.02902221679688,1952.608154296875,0.0,0.0,0.0,0.0,2.499999936844688e-05,0.02500000037252903,1000.0,100000000.0,0.30000001192092896
30,1,0.20502687990665436,0.2475000023841858,-0.0002770650607999414,-2.3782204152666964e-05,-388.1628112792969,-328.15435791015625,-23.281482696533203,1781.2979736328125,0.0,0.0,0.0,0.0,2.499999936844688e-05,0.02500000037252903,1000.0,100000000.0,0.30000001192092896
31,1,0.2100268006324768,0.24250000715255737,-0.0002750493003986776,-2.126145591319073e-05,-509.07366943359375,-450.9695739746094,-255.91172790527344,2086.73291015625,0.0,0.0,0.0,0.0,2.499999936844688e-05,0.02500000037252903,1000.0,100000000.0,0.30000001192092896
32,1,0.2100267857313156,0.2475000023841858,-0.00027671517455019057,-2.3016453269519843e-05,-790.47607421875,-390.27081298828125,-29.669269561767578,1876.4757080078125,0.0,0.0,0.0,0.0,2.499999936844688e-05,0.02500000037252903,1000.0,100000000.0,0.30000001192092896
33,1,0.20502687990665436,0.2524999976158142,-0.0002788435376714915,-2.575870712462347e-05,-407.3575744628906,-589.2161254882812,209.18922424316406,1845.6719970703125,0.0,0.0,0.0,0.0,2.499999936844688e-05,0.02500000037252903,1000.0,100000000.0,0.30000001192092896
34,1,0.20502687990665436,0.2574999928474426,-0.00028077157912775874,-2.7608542950474657e-05,-479.5538024902344,-581.0418701171875,447.3443298339844,1791.705322265625,0.0,0.0,0.0,0.0,2.499999936844688e-05,0.02500000037252903,1000.0,100000000.0,0.30000001192092896
35,1,0.2100267857313156,0.2524999976158142,-0.0002785470860544592,-2.4621589545859024e-05,-790.8335571289062,-605.7811279296875,200.90870666503906,1974.015869140625,0.0,0.0,0.0,0.0,2.499999936844688e-05,0.02500000037252903,1000.0,100000000.0,0.30000001192092896
36,1,0.2100267857313156,0.2574999928474426,-0.00028054413269273937,-2.607678652566392e-05,-835.75,-597.6122436523438,435.7538146972656,1940.646484375,0.0,0.0,0.0,0.0,2.499999936844688e-05,0.02500000037252903,1000.0,100000000.0,0.30000001192092896
37,1,0.20502685010433197,0.26249998807907104,-0.00028284688596613705,-2.948732981167268e-05,-347.1600646972656,-975.7882080078125,645.4137573242188,1886.5294189453125,0.0,0.0,0.0,0.0,2.499999936844688e-05,0.02500000037252903,1000.0,100000000.0,0.30000001192092896
38,1,0.2050267904996872,0.26750001311302185,-0.00028506951639428735,-3.139506952720694e-05,3.176450490951538,-1070.7802734375,803.2457275390625,2147.492431640625,0.0,0.0,0.0,0.0,2.499999936844688e-05,0.02500000037252903,1000.0,100000000.0,0.30000001192092896
39,1,0.21002675592899323,0.26249998807907104,-0.00028264994034543633,-2.756841786322184e-05,-915.1605834960938,-889.236083984375,651.6073608398438,1755.903564453125,0.0,0.0,0.0,0.0,2.499999936844688e-05,0.02500000037252903,1000.0,100000000.0,0.30000001192092896
40,1,0.21002672612667084,0.26750001311302185,-0.00028486442170105875,-2.909646718762815e-05,-608.6748046875,-984.1077270507812,848.2622680664062,1984.3558349609375,0.0,0.0,0.0,0.0,2.499999936844688e-05,0.02500000037252903,1000.0,100000000.0,0.30000001192092896
41,1,0.2050267606973648,0.27250000834465027,-0.00028741013375110924,-3.3253942092414945e-05,-311.9545593261719,-986.412109375,987.9553833007812,1569.702880859375,0.0,0.0,0.0,0.0,2.499999936844688e-05,0.02500000037252903,1000.0,100000000.0,0.30000001192092896
42,1,0.20502673089504242,0.2775000035762787,-0.0002898704551625997,-3.5064160329056904e-05,-145.8740234375,-865.4029541015625,1199.357421875,1693.5008544921875,0.0,0.0,0.0,0.0,2.499999936844688e-05,0.02500000037252903,1000.0,100000000.0,0.30000001192092896
43,1,0.21002669632434845,0.27250000834465027,-0.0002871540782507509,-3.063990152440965e-05,-747.5509643554688,-934.5027465820312,1052.8592529296875,1614.2823486328125,0.0,0.0,0.0,0.0,2.499999936844688e-05,0.02500000037252903,1000.0,100000000.0,0.30000001192092896
44,1,0.21002663671970367,0.2775000035762787,-0.0002895205398090184,-3.219891368644312e-05,-439.3346862792969,-813.56103515625,1264.657470703125,1843.464111328125,0.0,0.0,0.0,0.0,2.499999936844688e-05,0.02500000037252903,1000.0,100000000.0,0.30000001192092896
45,1,0.20502667129039764,0.2824999988079071,-0.00029253875254653394,-3.7077545130159706e-05,-280.0902404785156,-1217.490234375,1391.7454833984375,1378.6951904296875,0.0,0.0,0.0,0.0,2.499999936844688e-05,0.02500000037252903,1000.0,100000000.0,0.30000001192092896
46,1,0.2100265771150589,0.2824999988079071,-0.000292056065518409,-3.393612860236317e-05,-546.2847290039062,-1136.41796875,1454.8299560546875,1480.136474609375,0.0,0.0,0.0,0.0,2.499999936844688e-05,0.02500000037252903,1000.0,100000000.0,0.30000001192092896
47,1,0.21002651751041412,0.2874999940395355,-0.0002947588509414345,-3.5851338907377794e-05,-118.03734588623047,-1134.825927734375,1622.4835205078125,1799.2076416015625,0.0,0.0,0.0,0.0,2.499999936844688e-05,0.02500000037252903,1000.0,100000000.0,0.30000001192092896
48,1,0.21502648293972015,0.20749999582767487,-0.00026761097251437604,-3.0413561944442336e-06,885.346923828125,517.1738891601562,-1435.7489013671875,2022.7352294921875,0.0,0.0,0.0,0.0,2.499999936844688e-05,0.02500000037252903,1000.0,100000000.0,0.30000001192092896
49,1,0.22002631425857544,0.20250000059604645,-0.0002665205392986536,-6.455343850575446e-07,1455.5350341796875,381.4102783203125,-1428.204833984375,2476.535400390625,0.0,0.0,0.0,0.0,2.499999936844688e-05,0.02500000037252903,1000.0,100000000.0,0.30000001192092896
50,1,0.22002637386322021,0.20749999582767487,-0.0002664696075953543,-4.301612989365822e-06,855.1139526367188,396.87176513671875,-1414.98486328125,2029.59228515625,0.0,0.0,0.0,0.0,2.499999936844688e-05,0.02500000037252903,1000.0,100000000.0,0.30000001192092896
51,1,0.21502654254436493,0.21250000596046448,-0.00026798847829923034,-6.56339580018539e-06,819.8497924804688,205.94183349609375,-1361.7186279296875,2276.688232421875,0.0,0.0,0.0,0.0,2.499999936844688e-05,0.02500000037252903,1000.0,100000000.0,0.30000001192092896
52,1,0.2150265872478485,0.2175000011920929,-0.00026835131575353444,-9.77030231297249e-06,102.86811065673828,266.6321716308594,-1231.4039306640625,1742.814697265625,0.0,0.0,0.0,0.0,2.499999936844688e-05,0.02500000037252903,1000.0,100000000.0,0.30000001192092896
53,1,0.2200264185667038,0.21250000596046448,-0.00026664076722227037,-7.677489520574454e-06,969.8911743164062,16.467580795288086,-1351.5697021484375,2608.48291015625,0.0,0.0,0.0,0.0,2.499999936844688e-05,0.02500000037252903,1000.0,100000000.0,0.30000001192092896
54,1,0.22002646327018738,0.2175000011920929,-0.00026703407638706267,-1.0773164831334725e-05,151.6020965576172,77.12442016601562,-1238.085205078125,1998.8492431640625,0.0,0.0,0.0,0.0,2.499999936844688e-05,0.02500000037252903,1000.0006713867188,100000000.0,0.30000001192092896
55,1,0.2150266170501709,0.2224999964237213,-0.0002690154651645571,-1.2617563697858714e-05,185.11720275878906,-201.6916961669922,-1075.611328125,2258.271728515625,0.0,0.0,0.0,0.0,2.499999936844688e-05,0.02500000037252903,1000.0,100000000.0,0.30000001192092896
56,1,0.2150266468524933,0.22750000655651093,-0.00026998011162504554,-1.5105152670003008e-05,-452.2685852050781,-281.55804443359375,-893.9227905273438,1783.4798583984375,0.0,0.0,0.0,0.0,2.499999936844688e-05,0.02500000037252903,1000.0,100000000.0,0.30000001192092896
57,1,0.22002649307250977,0.2224999964237213,-0.000267735100351274,-1.3471150850818958e-05,284.45135498046875,-371.26898193359375,-1095.767822265625,2644.92236328125,0.0,0.0,0.0,0.0,2.499999936844688e-05,0.02500000037252903,1000.0023803710938,100000000.0,0.30000001192092896
58,1,0.22002650797367096,0.22750000655651093,-0.0002687429659999907,-1.5771413018228486e-05,-457.7022705078125,-451.1378479003906,-924.6820678710938,2091.330322265625,0.0,0.0,0.0,0.0,2.499999936844688e-05,0.02500000037252903,1000.00732421875,100000000.0,0.30000001192092896
59,1,0.21502667665481567,0.23250000178813934,-0.00027118143043480814,-1.7318525351583958e-05,-336.4317626953125,-473.0817565917969,-695.9877319335938,2287.1962890625,0.0,0.0,0.0,0.0,2.499999936844688e-05,0.02500000037252903,1000.0,100000000.0,0.30000001192092896
60,1,0.21502667665481567,0.23749999701976776,-0.00027262026560492814,-1.9257728126831353e-05,-862.0506591796875,-457.6366882324219,-481.5282897949219,1895.8629150390625,0.0,0.0,0.0,0.0,2.499999936844688e-05,0.02500000037252903,1000.0,100000000.0,0.30000001192092896
61,1,0.22002652287483215,0.23250000178813934,-0.0002700048789847642,-1.7719616153044626e-05,-334.31988525390625,-612.9386596679688,-731.8269653320312,2663.092041015625,0.0,0.0,0.0,0.0,2.499999936844688e-05,0.02500000037252903,1000.00830078125,100000000.0,0.30000001192092896
62,1,0.22002652287483215,0.23749999701976776,-0.0002715214795898646,-1.9315810277475975e-05,-945.9259033203125,-597.5066528320312,-517.05419921875,2207.4873046875,0.0,0.0,0.0,0.0,2.499999936844688e-05,0.02500000037252903,1000.0089111328125,100000000.0,0.30000001192092896
63,1,0.21502667665481567,0.24250000715255737,-0.0002742139913607389,-2.091998430842068e-05,-752.4908447265625,-532.1427612304688,-261.47930908203125,2299.942626953125,0.0,0.0,0.0,0.0,2.499999936844688e-05,0.02500000037252903,1000.0009155273438,100000000.0,0.30000001192092896
64,1,0.21502667665481567,0.2475000023841858,-0.0002759625785984099,-2.230528843938373e-05,-1081.6201171875,-471.4632568359375,-35.77134323120117,2054.17626953125,0.0,0.0,0.0,0.0,2.499999936844688e-05,0.02500000037252903,1000.0014038085938,100000000.0,0.30000001192092896
65,1,0.22002652287483215,0.24250000715255737,-0.0002731990534812212,-2.0616444089682773e-05,-858.7991943359375,-619.099853515625,-290.90716552734375,2618.9990234375,0.0,0.0,0.0,0.0,2.499999936844688e-05,0.02500000037252903,1000.0093383789062,100000000.0,0.30000001192092896
66,1,0.22002652287483215,0.2475000023841858,-0.0002750374551396817,-2.1621506675728597e-05,-1231.3701171875,-558.413330078125,-53.224517822265625,2341.496826171875,0.0,0.0,0.0,0.0,2.499999936844688e-05,0.02500000037252903,1000.0110473632812,100000000.0,0.30000001192092896
67,1,0.21502667665481567,0.2524999976158142,-0.0002778461785055697,-2.352754381718114e-05,-1071.986572265625,-612.1090087890625,192.78216552734375,2170.022705078125,0.0,0.0,0.0,0.0,2.499999936844688e-05,0.02500000037252903,1000.0015258789062,100000000.0,0.30000001192092896
68,1,0.2150266468524933,0.2574999928474426,-0.0002798638597596437,-2.4586686777183786e-05,-1088.6148681640625,-603.8833618164062,424.21624755859375,2157.652587890625,0.0,0.0,0.0,0.0,2.499999936844688e-05,0.02500000037252903,1000.00146484375,100000000.0,0.30000001192092896
69,1,0.22002650797367096,0.2524999976158142,-0.00027697361656464636,-2.2449712560046464e-05,-1230.3670654296875,-617.0955200195312,188.81826782226562,2462.689697265625,0.0,0.0,0.0,0.0,2.499999936844688e-05,0.02500000037252903,1000.0120239257812,100000000.0,0.30000001192092896
70,1,0.22002649307250977,0.2574999928474426,-0.0002790067228488624,-2.3100990802049637e-05,-1256.79345703125,-608.81787109375,435.1910400390625,2443.60498046875,0.0,0.0,0.0,0.0,2.499999936844688e-05,0.02500000037252903,1000.0112915039062,100000000.0,0.30000001192092896
71,1,0.2150266170501709,0.26249998807907104,-0.00028196925995871425,-2.5655641366029158e-05,-1200.6302490234375,-820.4692993164062,657.2731323242188,1936.45458984375,0.0,0.0,0.0,0.0,2.499999936844688e-05,0.02500000037252903,1000.0011596679688,100000000.0,0.30000001192092896
72,1,0.2150265872478485,0.26750001311302185,-0.00028416229179129004,-2.673440940270666e-05,-946.4537353515625,-915.3019409179688,891.9379272460938,2125.99560546875,0.0,0.0,0.0,0.0,2.499999936844688e-05,0.02500000037252903,1000.0,100000000.0,0.30000001192092896
73,1,0.22002646327018738,0.26249998807907104,-0.00028110769926570356,-2.3734934075037017e-05,-1348.8199462890625,-752.5474853515625,678.8983764648438,2239.077880859375,0.0,0.0,0.0,0.0,2.499999936844688e-05,0.02500000037252903,1000.0098266601562,100000000.0,0.30000001192092896
74,1,0.220026433467865,0.26750001311302185,-0.0002832766040228307,-2.4351536922040395e-05,-1053.032958984375,-847.5123291015625,919.9337158203125,2458.582763671875,0.0,0.0,0.0,0.0,2.499999936844688e-05,0.02500000037252903,1000.0091552734375,100000000.0,0.30000001192092896
75,1,0.21502655744552612,0.27250000834465027,-0.00028643026598729193,-2.7881616915692575e-05,-1092.1015625,-832.9183959960938,1115.706787109375,1729.171142578125,0.0,0.0,0.0,0.0,2.499999936844688e-05,0.02500000037252903,1000.0,100000000.0,0.30000001192092896
76,1,0.21502652764320374,0.2775000035762787,-0.00028877484146505594,-2.9097427614033222e-05,-672.4328002929688,-712.0034790039062,1328.95166015625,2041.9127197265625,0.0,0.0,0.0,0.0,2.499999936844688e-05,0.02500000037252903,1000.0,100000000.0,0.30000001192092896
77,1,0.2200264036655426,0.27250000834465027,-0.0002855243510566652,-2.5086788809858263e-05,-1197.321044921875,-719.1719360351562,1144.8067626953125,2019.930908203125,0.0,0.0,0.0,0.0,2.499999936844688e-05,0.02500000037252903,1000.0086669921875,100000000.0,0.30000001192092896
78,1,0.22002637386322021,0.2775000035762787,-0.00028785274480469525,-2.594083889562171e-05,-677.2005615234375,-598.1382446289062,1353.6815185546875,2407.646728515625,0.0,0.0,0.0,0.0,2.499999936844688e-05,0.02500000037252903,1000.0079956054688,100000000.0,0.30000001192092896
79,1,0.21502646803855896,0.2824999988079071,-0.00029127669404260814,-3.052751344512217e-05,-805.0489501953125,-1002.3167114257812,1517.01123046875,1573.70068359375,0.0,0.0,0.0,0.0,2.499999936844688e-05,0.02500000037252903,1000.0,100000000.0,0.30000001192092896
80,1,0.21502640843391418,0.2874999940395355,-0.0002939339610747993,-3.217167977709323e-05,-255.56016540527344,-994.1385498046875,1679.5997314453125,1982.956787109375,0.0,0.0,0.0,0.0,2.499999936844688e-05,0.02500000037252903,1000.0,100000000.0,0.30000001192092896
81,1,0.22002632915973663,0.2824999988079071,-0.00029033177997916937,-2.7056261387770064e-05,-839.4232788085938,-852.7029418945312,1532.9542236328125,1825.9986572265625,0.0,0.0,0.0,0.0,2.499999936844688e-05,0.02500000037252903,1000.0028686523438,100000000.0,0.30000001192092896
82,1,0.22002628445625305,0.2874999940395355,-0.00029295976855792105,-2.84328889392782e-05,-143.149658203125,-844.4888305664062,1682.327392578125,2344.381103515625,0.0,0.0,0.0,0.0,2.499999936844688e-05,0.02500000037252903,1000.0012817382812,100000000.0,0.30000001192092896
83,1,0.21502633392810822,0.29249998927116394,-0.0002966027823276818,-3.418383494135924e-05,-167.65916442871094,-1425.9910888671875,1790.365966796875,1756.9752197265625,0.0,0.0,0.0,0.0,2.499999936844688e-05,0.02500000037252903,1000.0,100000000.0,0.30000001192092896
84,1,0.22002620995044708,0.29249998927116394,-0.00029568327590823174,-3.0115919798845425e-05,-217.76272583007812,-1264.1629638671875,1779.8779296875,1816.96240234375,0.0,0.0,0.0,0.0,2.499999936844688e-05,0.02500000037252903,1000.0,100000000.0,0.30000001192092896
85,1,0.2200261503458023,0.29750001430511475,-0.0002985021856147796,-3.210531940567307e-05,515.0043334960938,-1365.5535888671875,1824.9747314453125,2362.71630859375,0.0,0.0,0.0,0.0,2.499999936844688e-05,0.02500000037252903,1000.0,100000000.0,0.30000001192092896
86,1,0.22502614557743073,0.19750000536441803,-0.000265676761046052,1.3942723171567195e-06,945.5838012695312,448.553466796875,-1359.28466796875,1778.760498046875,0.0,0.0,0.0,0.0,2.499999936844688e-05,0.02500000037252903,1000.0,100000000.0,0.30000001192092896
87,1,0.2300260365009308,0.19750000536441803,-0.0002640369930304587,3.9134093299253436e-08,485.76129150390625,399.1566467285156,-1560.8634033203125,1315.220703125,0.0,0.0,0.0,0.0,2.499999936844688e-05,0.02500000037252903,1000.0022583007812,100000000.0,0.30000001192092896
88,1,0.2250262051820755,0.20250000059604645,-0.0002649243688210845,-2.0325262539699906e-06,1044.721435546875,197.51722717285156,-1403.1380615234375,2188.067138671875,0.0,0.0,0.0,0.0,2.499999936844688e-05,0.02500000037252903,1000.0,100000000.0,0.30000001192092896
89,1,0.2250262349843979,0.20749999582767487,-0.000264590373262763,-5.583599431702169e-06,289.9149475097656,212.96389770507812,-1394.6390380859375,1625.2017822265625,0.0,0.0,0.0,0.0,2.499999936844688e-05,0.02500000037252903,1000.0006713867188,100000000.0,0.30000001192092896
90,1,0.23002606630325317,0.20250000059604645,-0.0002629925438668579,-3.4046388464048505e-06,742.03955078125,-1.6722018718719482,-1527.1707763671875,1999.2987060546875,0.0,0.0,0.0,0.0,2.499999936844688e-05,0.02500000037252903,1000.00732421875,100000000.0,0.30000001192092896
91,1,0.23002609610557556,0.20749999582767487,-0.00026243276079185307,-6.88111640556599e-06,-109.75167846679688,13.766141891479492,-1469.583984375,1364.826416015625,0.0,0.0,0.0,0.0,2.499999936844688e-05,0.02500000037252903,1000.0088500976562,100000000.0,0.30000001192092896
92,1,0.22502626478672028,0.21250000596046448,-0.0002646193315740675,-8.856766726239584e-06,542.8589477539062,-211.70379638671875,-1341.700927734375,2466.314453125,0.0,0.0,0.0,0.0,2.499999936844688e-05,0.02500000037252903,1000.0045166015625,100000000.0,0.30000001192092896
93,1,0.22502629458904266,0.2175000011920929,-0.0002650111564435065,-1.1852023817482404e-05,-376.6044006347656,-151.019775390625,-1244.8306884765625,1782.2562255859375,0.0,0.0,0.0,0.0,2.499999936844688e-05,0.02500000037252903,1000.0086059570312,100000000.0,0.30000001192092896
94,1,0.23002612590789795,0.21250000596046448,-0.0002623447508085519,-1.0071228643937502e-05,262.50286865234375,-453.54071044921875,-1391.36376953125,2427.418701171875,0.0,0.0,0.0,0.0,2.499999936844688e-05,0.02500000037252903,1000.0167846679688,100000000.0,0.30000001192092896
95,1,0.23002612590789795,0.2175000011920929,-0.00026272842660546303,-1.2974961464351509e-05,-770.424560546875,-392.8341064453125,-1292.3636474609375,1659.0194091796875,0.0,0.0,0.0,0.0,2.499999936844688e-05,0.02500000037252903,1000.0242309570312,100000000.0,0.30000001192092896
96,1,0.22502630949020386,0.2224999964237213,-0.00026574614457786083,-1.4413557437364943e-05,-162.6300811767578,-581.00390625,-1115.8790283203125,2596.787109375,0.0,0.0,0.0,0.0,2.499999936844688e-05,0.02500000037252903,1000.0122680664062,100000000.0,0.30000001192092896
97,1,0.22502630949020386,0.22750000655651093,-0.00026682342286221683,-1.6541327568120323e-05,-1010.6509399414062,-660.87548828125,-954.8484497070312,1965.537841796875,0.0,0.0,0.0,0.0,2.499999936844688e-05,0.02500000037252903,1000.0194091796875,100000000.0,0.30000001192092896
98,1,0.23002612590789795,0.2224999964237213,-0.00026349726249463856,-1.540788434795104e-05,-504.5692443847656,-806.97802734375,-1164.268798828125,2620.61376953125,0.0,0.0,0.0,0.0,2.499999936844688e-05,0.02500000037252903,1000.0269165039062,100000000.0,0.30000001192092896
99,1,0.23002612590789795,0.22750000655651093,-0.00026465035625733435,-1.7369957276969217e-05,-1500.394775390625,-886.8487548828125,-1006.7056274414062,1880.4815673828125,0.0,0.0,0.0,0.0,2.499999936844688e-05,0.02500000037252903,1000.0315551757812,100000000.0,0.30000001192092896
100,1,0.22502630949020386,0.23250000178813934,-0.00026816967874765396,-1.8246604668092914e-05,-830.9251098632812,-785.2891845703125,-766.800048828125,2668.20849609375,0.0,0.0,0.0,0.0,2.499999936844688e-05,0.02500000037252903,1000.0234985351562,100000000.0,0.30000001192092896
101,1,0.22502630949020386,0.23749999701976776,-0.0002697855525184423,-1.9529443306964822e-05,-1525.9725341796875,-769.8377685546875,-551.822265625,2150.619384765625,0.0,0.0,0.0,0.0,2.499999936844688e-05,0.02500000037252903,1000.025146484375,100000000.0,0.30000001192092896
102,1,0.23002611100673676,0.23250000178813934,-0.00026608904590830207,-1.8837365132640116e-05,-1299.620361328125,-971.5698852539062,-818.1903686523438,2696.316162109375,0.0,0.0,0.0,0.0,2.499999936844688e-05,0.02500000037252903,1000.03466796875,100000000.0,0.30000001192092896
103,1,0.23002611100673676,0.23749999701976776,-0.0002678140881471336,-1.981017157959286e-05,-2129.81640625,-956.1592407226562,-598.7601318359375,2077.073486328125,0.0,0.0,0.0,0.0,2.499999936844688e-05,0.02500000037252903,1000.0369262695312,100000000.0,0.30000001192092896
104,1,0.22502630949020386,0.24250000715255737,-0.0002715569862630218,-2.046263762167655e-05,-1408.08740234375,-722.0079345703125,-319.6611328125,2640.182861328125,0.0,0.0,0.0,0.0,2.499999936844688e-05,0.02500000037252903,1000.0264282226562,100000000.0,0.30000001192092896
105,1,0.22502630949020386,0.2475000023841858,-0.0002734838635660708,-2.1046185793238692e-05,-1822.5572509765625,-661.3131713867188,-70.22821807861328,2331.67333984375,0.0,0.0,0.0,0.0,2.499999936844688e-05,0.02500000037252903,1000.0272827148438,100000000.0,0.30000001192092896
106,1,0.23002608120441437,0.24250000715255737,-0.00026968674501404166,-2.036937075899914e-05,-2011.4373779296875,-832.7943725585938,-356.82763671875,2631.732666015625,0.0,0.0,0.0,0.0,2.499999936844688e-05,0.02500000037252903,1000.0386352539062,100000000.0,0.30000001192092896
107,1,0.23002608120441437,0.2475000023841858,-0.00027170684188604355,-2.0514960851869546e-05,-2506.25634765625,-772.099365234375,-92.409912109375,2263.77734375,0.0,0.0,0.0,0.0,2.499999936844688e-05,0.02500000037252903,1000.0393676757812,100000000.0,0.30000001192092896
108,1,0.22502627968788147,0.2524999976158142,-0.00027547977515496314,-2.1425732484203763e-05,-1815.9931640625,-625.5302734375,185.007080078125,2476.7939453125,0.0,0.0,0.0,0.0,2.499999936844688e-05,0.02500000037252903,1000.0276489257812,100000000.0,0.30000001192092896
109,1,0.22502627968788147,0.2574999928474426,-0.0002775437606032938,-2.1601197659038007e-05,-1852.989990234375,-617.3561401367188,446.0730895996094,2448.980224609375,0.0,0.0,0.0,0.0,2.499999936844688e-05,0.02500000037252903,1000.0274658203125,100000000.0,0.30000001192092896
110,1,0.23002606630325317,0.2524999976158142,-0.00027376599609851837,-2.0425279217306525e-05,-2506.65625,-635.3255004882812,179.57318115234375,2426.077392578125,0.0,0.0,0.0,0.0,2.499999936844688e-05,0.02500000037252903,1000.0396728515625,100000000.0,0.30000001192092896
111,1,0.23002605140209198,0.2574999928474426,-0.0002758632763288915,-2.010025673371274e-05,-2548.125,-627.11572265625,459.1791076660156,2395.531005859375,0.0,0.0,0.0,0.0,2.499999936844688e-05,0.02500000037252903,1000.0394897460938,100000000.0,0.30000001192092896
112,1,0.22502624988555908,0.26249998807907104,-0.0002796464541461319,-2.176167799916584e-05,-1966.7930908203125,-670.2178955078125,700.3094482421875,2207.958740234375,0.0,0.0,0.0,0.0,2.499999936844688e-05,0.02500000037252903,1000.02685546875,100000000.0,0.30000001192092896
113,1,0.22502624988555908,0.26750001311302185,-0.0002817877975758165,-2.1907149857725017e-05,-1635.9461669921875,-765.041259765625,947.6517333984375,2452.699462890625,0.0,0.0,0.0,0.0,2.499999936844688e-05,0.02500000037252903,1000.0256958007812,100000000.0,0.30000001192092896
114,1,0.2300260215997696,0.26249998807907104,-0.0002779665228445083,-1.976882413146086e-05,-2669.0869140625,-581.0337524414062,729.0020751953125,2121.1552734375,0.0,0.0,0.0,0.0,2.499999936844688e-05,0.02500000037252903,1000.0386962890625,100000000.0,0.30000001192092896
115,1,0.2300260215997696,0.26750001311302185,-0.00028007561923004687,-1.9430954125709832e-05,-2265.1748046875,-675.914794921875,989.2922973632812,2422.4169921875,0.0,0.0,0.0,0.0,2.499999936844688e-05,0.02500000037252903,1000.0374145507812,100000000.0,0.30000001192092896
116,1,0.2250262200832367,0.27250000834465027,-0.00028399581788107753,-2.2215464923647232e-05,-1836.1402587890625,-568.5029296875,1173.6463623046875,1903.2037353515625,0.0,0.0,0.0,0.0,2.499999936844688e-05,0.02500000037252903,1000.0241088867188,100000000.0,0.30000001192092896
117,1,0.2250261902809143,0.2775000035762787,-0.0002862720866687596,-2.2686739612254314e-05,-1228.30517578125,-447.7030944824219,1378.3963623046875,2356.96142578125,0.0,0.0,0.0,0.0,2.499999936844688e-05,0.02500000037252903,1000.0206298828125,100000000.0,0.30000001192092896
118,1,0.2300260066986084,0.27250000834465027,-0.0002822352689690888,-1.9301098291180097e-05,-2487.750244140625,-404.4095153808594,1224.6029052734375,1777.76123046875,0.0,0.0,0.0,0.0,2.499999936844688e-05,0.02500000037252903,1000.0365600585938,100000000.0,0.30000001192092896
119,1,0.230025976896286,0.2775000035762787,-0.00028444704366847873,-1.9379363948246464e-05,-1743.83056640625,-283.51177978515625,1435.138427734375,2331.134765625,0.0,0.0,0.0,0.0,2.499999936844688e-05,0.02500000037252903,1000.0330200195312,100000000.0,0.30000001192092896
120,1,0.22502614557743073,0.2824999988079071,-0.0002886977163143456,-2.3472965040127747e-05,-1470.6326904296875,-648.3953247070312,1549.20703125,1601.4578857421875,0.0,0.0,0.0,0.0,2.499999936844688e-05,0.02500000037252903,1000.015380859375,100000000.0,0.30000001192092896
121,1,0.22502611577510834,0.2874999940395355,-0.0002912710187956691,-2.4573981136200018e-05,-637.8395385742188,-640.2433471679688,1686.256591796875,2220.50537109375,0.0,0.0,0.0,0.0,2.499999936844688e-05,0.02500000037252903,1000.0089111328125,100000000.0,0.30000001192092896
122,1,0.230025976896286,0.2824999988079071,-0.0002868064329959452,-1.9826897187158465e-05,-2049.121337890625,-427.818115234375,1614.08154296875,1412.2584228515625,0.0,0.0,0.0,0.0,2.499999936844688e-05,0.02500000037252903,1000.028076171875,100000000.0,0.30000001192092896
123,1,0.23002593219280243,0.2874999940395355,-0.00028931169072166085,-2.0643627067329362e-05,-1090.5806884765625,-419.63104248046875,1761.956298828125,2127.9267578125,0.0,0.0,0.0,0.0,2.499999936844688e-05,0.02500000037252903,1000.0248413085938,100000000.0,0.30000001192092896
124,1,0.22502605617046356,0.29249998927116394,-0.0002940271806437522,-2.6017651180154644e-05,-881.407470703125,-1050.784912109375,1770.231201171875,1382.798095703125,0.0,0.0,0.0,0.0,2.499999936844688e-05,0.02500000037252903,1000.0044555664062,100000000.0,0.30000001192092896
125,1,0.22502601146697998,0.29750001430511475,-0.00029696617275476456,-2.7803933335235342e-05,-7.833038806915283,-1145.5872802734375,1801.23291015625,2033.444580078125,0.0,0.0,0.0,0.0,2.499999936844688e-05,0.02500000037252903,1000.0,100000000.0,0.30000001192092896
126,1,0.23002590239048004,0.29249998927116394,-0.00029207204352132976,-2.1853240468772128e-05,-1528.4630126953125,-826.0006713867188,1884.059326171875,983.9102783203125,0.0,0.0,0.0,0.0,2.499999936844688e-05,0.02500000037252903,1000.019287109375,100000000.0,0.30000001192092896
127,1,0.23002587258815765,0.29750001430511475,-0.0002950875204987824,-2.345574102946557e-05,-630.4539794921875,-920.8087768554688,1980.409423828125,1652.5499267578125,0.0,0.0,0.0,0.0,2.499999936844688e-05,0.02500000037252903,1000.0099487304688,100000000.0,0.30000001192092896
128,1,0.2250259518623352,0.30250000953674316,-0.00030010120826773345,-2.9604567316710018e-05,63.29239273071289,-1171.3118896484375,1771.504150390625,1696.9658203125,0.0,0.0,0.0,0.0,2.499999936844688e-05,0.02500000037252903,1000.0,100000000.0,0.30000001192092896
129,1,0.23002582788467407,0.30250000953674316,-0.00029836525209248066,-2.519990630389657e-05,-922.5382080078125,-1034.1820068359375,2048.0107421875,862.74853515625,0.0,0.0,0.0,0.0,2.499999936844688e-05,0.02500000037252903,1000.0086059570312,100000000.0,0.30000001192092896
130,1,0.23502586781978607,0.19750000536441803,-0.00026097887894138694,-1.1354491107340436e-06,925.653564453125,301.47650146484375,-1757.8004150390625,1795.7567138671875,0.0,0.0,0.0,0.0,2.499999936844688e-05,0.02500000037252903,1000.0203247070312,100000000.0,0.30000001192092896
131,1,0.24002563953399658,0.19249999523162842,-0.0002590815129224211,1.7397128431184683e-06,1595.518798828125,263.76116943359375,-1633.1201171875,2449.340087890625,0.0,0.0,0.0,0.0,2.499999936844688e-05,0.02500000037252903,1000.0203247070312,100000000.0,0.30000001192092896
132,1,0.24002566933631897,0.19750000536441803,-0.00025769491912797093,-2.2503957097796956e-06,1026.658935546875,183.8534393310547,-1617.592041015625,2024.7230224609375,0.0,0.0,0.0,0.0,2.499999936844688e-05,0.02500000037252903,1000.0245971679688,100000000.0,0.30000001192092896
133,1,0.23502588272094727,0.20250000059604645,-0.00025995177566073835,-4.741491011373e-06,1077.003173828125,-238.63748168945312,-1648.210205078125,2411.87744140625,0.0,0.0,0.0,0.0,2.499999936844688e-05,0.02500000037252903,1000.02197265625,100000000.0,0.30000001192092896
134,1,0.23502589762210846,0.20749999582767487,-0.000259348948020488,-8.249092388723511e-06,120.89471435546875,-223.19549560546875,-1542.63671875,1699.7578125,0.0,0.0,0.0,0.0,2.499999936844688e-05,0.02500000037252903,1000.025146484375,100000000.0,0.30000001192092896
135,1,0.24002568423748016,0.20250000059604645,-0.0002566743060015142,-6.0321635828586295e-06,1088.91748046875,-486.0780334472656,-1583.346923828125,2580.731201171875,0.0,0.0,0.0,0.0,2.499999936844688e-05,0.02500000037252903,1000.0272827148438,100000000.0,0.30000001192092896
136,1,0.24002568423748016,0.20749999582767487,-0.0002560204011388123,-9.605608283891343e-06,78.78980255126953,-470.63250732421875,-1530.171875,1828.9930419921875,0.0,0.0,0.0,0.0,2.499999936844688e-05,0.02500000037252903,1000.0338745117188,100000000.0,0.30000001192092896
137,1,0.23502591252326965,0.21250000596046448,-0.00025923122302629054,-1.1429978258092888e-05,404.7506408691406,-738.36328125,-1439.6668701171875,2708.3115234375,0.0,0.0,0.0,0.0,2.499999936844688e-05,0.02500000037252903,1000.0286865234375,100000000.0,0.30000001192092896
138,1,0.23502588272094727,0.2175000011920929,-0.00025959854247048497,-1.428413361281855e-05,-738.046630859375,-677.6793212890625,-1338.893798828125,1857.36181640625,0.0,0.0,0.0,0.0,2.499999936844688e-05,0.02500000037252903,1000.0340576171875,100000000.0,0.30000001192092896
139,1,0.24002568423748016,0.21250000596046448,-0.0002558622509241104,-1.2810921361960936e-05,294.0375061035156,-1036.796630859375,-1463.928466796875,2793.495849609375,0.0,0.0,0.0,0.0,2.499999936844688e-05,0.02500000037252903,1000.038818359375,100000000.0,0.30000001192092896
140,1,0.24002565443515778,0.2175000011920929,-0.00025619982625357807,-1.5648085536668077e-05,-952.1427612304688,-976.1775512695312,-1384.1595458984375,1864.702880859375,0.0,0.0,0.0,0.0,2.499999936844688e-05,0.02500000037252903,1000.0440063476562,100000000.0,0.30000001192092896
141,1,0.23502588272094727,0.2224999964237213,-0.00026040326338261366,-1.662227077758871e-05,-443.9053955078125,-1089.140869140625,-1211.5694580078125,2936.34326171875,0.0,0.0,0.0,0.0,2.499999936844688e-05,0.02500000037252903,1000.0382690429688,100000000.0,0.30000001192092896
142,1,0.23502586781978607,0.22750000655651093,-0.000261644454440102,-1.8444332454237156e-05,-1585.3870849609375,-1169.0008544921875,-1057.699951171875,2086.717041015625,0.0,0.0,0.0,0.0,2.499999936844688e-05,0.02500000037252903,1000.04150390625,100000000.0,0.30000001192092896
143,1,0.2400256246328354,0.2224999964237213,-0.0002570357173681259,-1.7917438526637852e-05,-640.0580444335938,-1392.9906005859375,-1272.456787109375,3053.01318359375,0.0,0.0,0.0,0.0,2.499999936844688e-05,0.02500000037252903,1000.0457153320312,100000000.0,0.30000001192092896
144,1,0.240025594830513,0.22750000655651093,-0.0002583691384643316,-1.961893394764047e-05,-1973.8936767578125,-1472.8492431640625,-1128.755126953125,2061.94482421875,0.0,0.0,0.0,0.0,2.499999936844688e-05,0.02500000037252903,1000.0471801757812,100000000.0,0.30000001192092896
145,1,0.23502583801746368,0.23250000178813934,-0.00026320069446228445,-1.9682285710587166e-05,-1324.45166015625,-1209.0904541015625,-868.7333374023438,3066.745849609375,0.0,0.0,0.0,0.0,2.499999936844688e-05,0.02500000037252903,1000.0445556640625,100000000.0,0.30000001192092896
146,1,0.2350258231163025,0.23749999701976776,-0.0002650725655257702,-2.033619603025727e-05,-2286.11865234375,-1193.6397705078125,-644.772705078125,2349.333984375,0.0,0.0,0.0,0.0,2.499999936844688e-05,0.02500000037252903,1000.0454711914062,100000000.0,0.30000001192092896
147,1,0.2400255650281906,0.23250000178813934,-0.00026005328982137144,-2.0635892724385485e-05,-1693.9307861328125,-1467.76123046875,-941.8424072265625,3185.041748046875,0.0,0.0,0.0,0.0,2.499999936844688e-05,0.02500000037252903,1000.0481567382812,100000000.0,0.30000001192092896
148,1,0.24002553522586823,0.23749999701976776,-0.0002620889281388372,-2.096838034049142e-05,-2863.44970703125,-1452.2896728515625,-711.9157104492188,2315.198974609375,0.0,0.0,0.0,0.0,2.499999936844688e-05,0.02500000037252903,1000.04931640625,100000000.0,0.30000001192092896
149,1,0.2350258082151413,0.24250000715255737,-0.0002670796529855579,-2.0488458176259883e-05,-2121.08984375,-974.2665405273438,-393.1827697753906,3032.107666015625,0.0,0.0,0.0,0.0,2.499999936844688e-05,0.02500000037252903,1000.0460815429688,100000000.0,0.30000001192092896
150,1,0.2350257784128189,0.2475000023841858,-0.00026922192773781717,-2.0139068510616198e-05,-2694.0205078125,-913.5635375976562,-114.05557250976562,2605.7392578125,0.0,0.0,0.0,0.0,2.499999936844688e-05,0.02500000037252903,1000.0465698242188,100000000.0,0.30000001192092896
151,1,0.24002550542354584,0.24250000715255737,-0.000264245318248868,-2.069933179882355e-05,-2692.204833984375,-1129.097412109375,-446.5140686035156,3102.301025390625,0.0,0.0,0.0,0.0,2.499999936844688e-05,0.02500000037252903,1000.0499267578125,100000000.0,0.30000001192092896
152,1,0.24002549052238464,0.2475000023841858,-0.00026652240194380283,-1.982874709938187e-05,-3396.974853515625,-1068.33349609375,-145.42391967773438,2577.151123046875,0.0,0.0,0.0,0.0,2.499999936844688e-05,0.02500000037252903,1000.0502319335938,100000000.0,0.30000001192092896
153,1,0.2350257784128189,0.2524999976158142,-0.0002713584981393069,-1.9511715436237864e-05,-2681.620361328125,-646.59375,174.40768432617188,2805.78271484375,0.0,0.0,0.0,0.0,2.499999936844688e-05,0.02500000037252903,1000.0467529296875,100000000.0,0.30000001192092896
154,1,0.23502574861049652,0.2574999928474426,-0.0002734885783866048,-1.860634256445337e-05,-2728.47900390625,-638.415771484375,472.1651916503906,2771.790283203125,0.0,0.0,0.0,0.0,2.499999936844688e-05,0.02500000037252903,1000.046630859375,100000000.0,0.30000001192092896
155,1,0.24002547562122345,0.2524999976158142,-0.00026874186005443335,-1.863294528448023e-05,-3398.25,-658.350830078125,167.5563201904297,2805.619140625,0.0,0.0,0.0,0.0,2.499999936844688e-05,0.02500000037252903,1000.0504150390625,100000000.0,0.30000001192092896
156,1,0.24002546072006226,0.2574999928474426,-0.00027090279036201537,-1.7111877241404727e-05,-3445.447021484375,-650.1363525390625,492.4827575683594,2770.2685546875,0.0,0.0,0.0,0.0,2.499999936844688e-05,0.02500000037252903,1000.0503540039062,100000000.0,0.30000001192092896
157,1,0.23502574861049652,0.26249998807907104,-0.0002755794848781079,-1.771141614881344e-05,-2886.111572265625,-463.3659973144531,757.5883178710938,2431.366943359375,0.0,0.0,0.0,0.0,2.499999936844688e-05,0.02500000037252903,1000.0462646484375,100000000.0,0.30000001192092896
158,1,0.23502573370933533,0.26750001311302185,-0.0002776312467176467,-1.68269489222439e-05,-2407.425537109375,-558.1721801757812,1030.6539306640625,2787.5322265625,0.0,0.0,0.0,0.0,2.499999936844688e-05,0.02500000037252903,1000.0457153320312,100000000.0,0.30000001192092896
159,1,0.24002546072006226,0.26249998807907104,-0.00027297413907945156,-1.5623112631146796e-05,-3619.86474609375,-333.5309753417969,800.7083129882812,2368.813720703125,0.0,0.0,0.0,0.0,2.499999936844688e-05,0.02500000037252903,1000.0499877929688,100000000.0,0.30000001192092896
160,1,0.24002546072006226,0.26750001311302185,-0.0002749557897914201,-1.4166659639158752e-05,-3019.68115234375,-428.3497619628906,1092.4259033203125,2814.890869140625,0.0,0.0,0.0,0.0,2.499999936844688e-05,0.02500000037252903,1000.049072265625,100000000.0,0.30000001192092896
161,1,0.23502573370933533,0.27250000834465027,-0.000279710948234424,-1.6207301086978987e-05,-2692.03271484375,-189.55494689941406,1275.103515625,2001.4561767578125,0.0,0.0,0.0,0.0,2.499999936844688e-05,0.02500000037252903,1000.044921875,100000000.0,0.30000001192092896
162,1,0.23502571880817413,0.2775000035762787,-0.0002818201610352844,-1.585257086844649e-05,-1817.382080078125,-68.63325500488281,1491.232177734375,2652.30078125,0.0,0.0,0.0,0.0,2.499999936844688e-05,0.02500000037252903,1000.0424194335938,100000000.0,0.30000001192092896
163,1,0.24002546072006226,0.27250000834465027,-0.0002769429120235145,-1.3040402336628176e-05,-3335.37255859375,44.66447067260742,1347.9981689453125,1900.144775390625,0.0,0.0,0.0,0.0,2.499999936844688e-05,0.02500000037252903,1000.04833984375,100000000.0,0.30000001192092896
164,1,0.24002546072006226,0.2775000035762787,-0.0002789371064864099,-1.2244400750205386e-05,-2287.259521484375,165.53944396972656,1567.658935546875,2679.864501953125,0.0,0.0,0.0,0.0,2.499999936844688e-05,0.02500000037252903,1000.0474243164062,100000000.0,0.30000001192092896
165,1,0.23502571880817413,0.2824999988079071,-0.0002840672677848488,-1.5919780707918108e-05,-2164.89453125,-158.46141052246094,1678.7222900390625,1599.0484619140625,0.0,0.0,0.0,0.0,2.499999936844688e-05,0.02500000037252903,1000.0380249023438,100000000.0,0.30000001192092896
166,1,0.23502570390701294,0.2874999940395355,-0.00028645049314945936,-1.6408848750870675e-05,-1077.3292236328125,-150.28274536132812,1836.811279296875,2409.0634765625,0.0,0.0,0.0,0.0,2.499999936844688e-05,0.02500000037252903,1000.0365600585938,100000000.0,0.30000001192092896
167,1,0.24002544581890106,0.2824999988079071,-0.00028106512036174536,-1.1930291293538176e-05,-2661.168212890625,127.84300231933594,1750.44384765625,1501.5169677734375,0.0,0.0,0.0,0.0,2.499999936844688e-05,0.02500000037252903,1000.0460815429688,100000000.0,0.30000001192092896
168,1,0.24002544581890106,0.2874999940395355,-0.0002833252656273544,-1.2097970284230541e-05,-1435.929443359375,135.99514770507812,1896.06689453125,2411.9365234375,0.0,0.0,0.0,0.0,2.499999936844688e-05,0.02500000037252903,1000.0445556640625,100000000.0,0.30000001192092896
169,1,0.23502567410469055,0.29249998927116394,-0.00028906893567182124,-1.732959754008334e-05,-1468.3072509765625,-591.126708984375,1995.6944580078125,1279.2783203125,0.0,0.0,0.0,0.0,2.499999936844688e-05,0.02500000037252903,1000.03173828125,100000000.0,0.30000001192092896
170,1,0.23502565920352936,0.29750001430511475,-0.00029192259535193443,-1.8681996152736247e-05,-539.61572265625,-685.8984985351562,2154.83642578125,1971.4903564453125,0.0,0.0,0.0,0.0,2.499999936844688e-05,0.02500000037252903,1000.0278930664062,100000000.0,0.30000001192092896
171,1,0.24002544581890106,0.29249998927116394,-0.0002858004008885473,-1.2743114893964957e-05,-1707.0882568359375,-342.62640380859375,2017.0615234375,1350.267822265625,0.0,0.0,0.0,0.0,2.499999936844688e-05,0.02500000037252903,1000.0392456054688,100000000.0,0.30000001192092896
172,1,0.24002543091773987,0.29750001430511475,-0.0002884904097300023,-1.3865736946172547e-05,-605.3052368164062,-437.4681396484375,2113.389404296875,2172.184814453125,0.0,0.0,0.0,0.0,2.499999936844688e-05,0.02500000037252903,1000.037109375,100000000.0,0.30000001192092896
173,1,0.23502562940120697,0.30250000953674316,-0.0002950300695374608,-2.0313022105256096e-05,-907.622314453125,-949.8355712890625,2317.031982421875,1108.9854736328125,0.0,0.0,0.0,0.0,2.499999936844688e-05,0.02500000037252903,1000.02734375,100000000.0,0.30000001192092896
174,1,0.24002540111541748,0.30250000953674316,-0.0002914278593380004,-1.539710683573503e-05,-705.2606201171875,-846.0862426757812,2175.521240234375,1487.8673095703125,0.0,0.0,0.0,0.0,2.499999936844688e-05,0.02500000037252903,1000.0317993164062,100000000.0,0.30000001192092896
175,1,0.2400253564119339,0.3075000047683716,-0.0002946143504232168,-1.733730641717557e-05,33.763938903808594,-770.4320068359375,2203.939453125,2037.893310546875,0.0,0.0,0.0,0.0,2.499999936844688e-05,0.02500000037252903,1000.0274047851562,100000000.0,0.30000001192092896
176,1,0.24502545595169067,0.19249999523162842,-0.00025626379647292197,8.643532964924816e-07,1480.187255859375,91.23944091796875,-1401.2994384765625,2264.83642578125,0.0,0.0,0.0,0.0,2.499999936844688e-05,0.02500000037252903,1000.0186767578125,100000000.0,0.30000001192092896
177,1,0.24502547085285187,0.19750000536441803,-0.00025444308994337916,-3.1880611004453385e-06,771.1582641601562,11.377435684204102,-1480.9801025390625,1736.9622802734375,0.0,0.0,0.0,0.0,2.499999936844688e-05,0.02500000037252903,1000.026611328125,100000000.0,0.30000001192092896
178,1,0.2500212788581848,0.19249999523162842,-0.00025337058468721807,5.283146009560369e-08,1677.720703125,-90.46126556396484,-1403.970947265625,2291.95263671875,0.0,0.0,0.0,0.0,2.499999936844688e-05,0.02500000037252903,1000.0288696289062,100000000.0,0.30000001192092896
179,1,0.2500212788581848,0.19750000536441803,-0.0002510633203200996,-4.040404746774584e-06,959.9381103515625,-170.359375,-1441.031494140625,1757.38525390625,0.0,0.0,0.0,0.0,2.499999936844688e-05,0.02500000037252903,1000.035400390625,100000000.0,0.30000001192092896
180,1,0.24502545595169067,0.20250000059604645,-0.00025306851603090763,-7.085221568559064e-06,945.1448364257812,-753.5109252929688,-1519.782958984375,2500.03466796875,0.0,0.0,0.0,0.0,2.499999936844688e-05,0.02500000037252903,1000.0350341796875,100000000.0,0.30000001192092896
181,1,0.24502545595169067,0.20749999582767487,-0.0002521407441236079,-1.0827157893800177e-05,-112.79186248779297,-738.0488891601562,-1518.2515869140625,1711.2301025390625,0.0,0.0,0.0,0.0,2.499999936844688e-05,0.02500000037252903,1000.041015625,100000000.0,0.30000001192092896
182,1,0.2500212490558624,0.20250000059604645,-0.0002492815547157079,-8.057390004978515e-06,1301.20654296875,-1026.4229736328125,-1467.74609375,2759.4482421875,0.0,0.0,0.0,0.0,2.499999936844688e-05,0.02500000037252903,1000.043212890625,100000000.0,0.30000001192092896
183,1,0.25002121925354004,0.20749999582767487,-0.0002480259572621435,-1.1998150512226857e-05,199.97482299804688,-1011.1570434570312,-1484.3238525390625,1939.1041259765625,0.0,0.0,0.0,0.0,2.499999936844688e-05,0.02500000037252903,1000.0462646484375,100000000.0,0.30000001192092896
184,1,0.2450254261493683,0.21250000596046448,-0.00025179548538289964,-1.4183845451043453e-05,172.7349090576172,-1374.323974609375,-1487.637939453125,2814.260986328125,0.0,0.0,0.0,0.0,2.499999936844688e-05,0.02500000037252903,1000.0454711914062,100000000.0,0.30000001192092896
185,1,0.2450253814458847,0.2175000011920929,-0.00025203273980878294,-1.715528196655214e-05,-1173.576416015625,-1313.6392822265625,-1428.5548095703125,1811.1768798828125,0.0,0.0,0.0,0.0,2.499999936844688e-05,0.02500000037252903,1000.047119140625,100000000.0,0.30000001192092896
186,1,0.25002115964889526,0.21250000596046448,-0.00024745342670939863,-1.5550527677987702e-05,542.0198974609375,-1727.4014892578125,-1482.419677734375,3175.119384765625,0.0,0.0,0.0,0.0,2.499999936844688e-05,0.02500000037252903,1000.0479125976562,100000000.0,0.30000001192092896
187,1,0.2500211000442505,0.2175000011920929,-0.0002475639630574733,-1.8714519683271646e-05,-950.61376953125,-1666.634521484375,-1462.0299072265625,2063.878173828125,0.0,0.0,0.0,0.0,2.499999936844688e-05,0.02500000037252903,1000.0498046875,100000000.0,0.30000001192092896
188,1,0.24502533674240112,0.2224999964237213,-0.0002528704353608191,-1.9476310626487248e-05,-793.7963256835938,-1768.922119140625,-1332.3165283203125,3176.23291015625,0.0,0.0,0.0,0.0,2.499999936844688e-05,0.02500000037252903,1000.0484619140625,100000000.0,0.30000001192092896
189,1,0.24502529203891754,0.22750000655651093,-0.0002543077862355858,-2.1146881408640184e-05,-2314.689453125,-1848.930419921875,-1198.476318359375,2045.6337890625,0.0,0.0,0.0,0.0,2.499999936844688e-05,0.02500000037252903,1000.0501098632812,100000000.0,0.30000001192092896
190,1,0.2500210404396057,0.2224999964237213,-0.0002483929565642029,-2.1138315787538886e-05,-557.7687377929688,-2175.025146484375,-1397.35693359375,3575.907958984375,0.0,0.0,0.0,0.0,2.499999936844688e-05,0.02500000037252903,1000.051025390625,100000000.0,0.30000001192092896
191,1,0.25002095103263855,0.22750000655651093,-0.000249939679633826,-2.2821852326160297e-05,-2360.40673828125,-2254.843994140625,-1288.4459228515625,2233.591064453125,0.0,0.0,0.0,0.0,2.499999936844688e-05,0.02500000037252903,1000.054443359375,100000000.0,0.30000001192092896
192,1,0.24502524733543396,0.23250000178813934,-0.0002561574801802635,-2.1984486011206172e-05,-1944.3057861328125,-1804.94873046875,-1013.6819458007812,3406.579833984375,0.0,0.0,0.0,0.0,2.499999936844688e-05,0.02500000037252903,1000.0509643554688,100000000.0,0.30000001192092896
193,1,0.24502520263195038,0.23749999701976776,-0.00025842024479061365,-2.1989195374771953e-05,-3313.60302734375,-1789.6883544921875,-777.9014282226562,2387.542724609375,0.0,0.0,0.0,0.0,2.499999936844688e-05,0.02500000037252903,1000.0515747070312,100000000.0,0.30000001192092896
194,1,0.2500208914279938,0.23250000178813934,-0.00025197246577590704,-2.350175600440707e-05,-1979.8011474609375,-2175.9326171875,-1114.0643310546875,3793.162353515625,0.0,0.0,0.0,0.0,2.499999936844688e-05,0.02500000037252903,1000.0595703125,100000000.0,0.30000001192092896
195,1,0.250020831823349,0.23749999701976776,-0.00025449192617088556,-2.3178092305897735e-05,-3687.535888671875,-2160.59716796875,-874.2486572265625,2521.46875,0.0,0.0,0.0,0.0,2.499999936844688e-05,0.02500000037252903,1000.0620727539062,100000000.0,0.30000001192092896
196,1,0.2450251579284668,0.24250000715255737,-0.0002607810019981116,-2.1245961761451326e-05,-3067.93115234375,-1334.096435546875,-498.6916198730469,3375.998779296875,0.0,0.0,0.0,0.0,2.499999936844688e-05,0.02500000037252903,1000.0540161132812,100000000.0,0.30000001192092896
197,1,0.2450251281261444,0.2475000023841858,-0.00026323969359509647,-1.9754790628212504e-05,-3905.181884765625,-1273.4228515625,-176.09474182128906,2754.175048828125,0.0,0.0,0.0,0.0,2.499999936844688e-05,0.02500000037252903,1000.054931640625,100000000.0,0.30000001192092896
198,1,0.2500207722187042,0.24250000715255737,-0.0002570817887317389,-2.1936937628197484e-05,-3444.00244140625,-1561.5189208984375,-576.4588012695312,3672.23193359375,0.0,0.0,0.0,0.0,2.499999936844688e-05,0.02500000037252903,1000.0650024414062,100000000.0,0.30000001192092896
199,1,0.25002074241638184,0.2475000023841858,-0.0002597419370431453,-1.9778297428274527e-05,-4502.55908203125,-1500.85791015625,-220.7222442626953,2886.33203125,0.0,0.0,0.0,0.0,2.499999936844688e-05,0.02500000037252903,1000.0675048828125,100000000.0,0.30000001192092896
200,1,0.24502511322498322,0.2524999976158142,-0.0002655602584127337,-1.7875297999125905e-05,-3884.705078125,-670.5741577148438,160.97451782226562,3042.178955078125,0.0,0.0,0.0,0.0,2.499999936844688e-05,0.02500000037252903,1000.0551147460938,100000000.0,0.30000001192092896
201,1,0.24502509832382202,0.2574999928474426,-0.00026774179423227906,-1.560742202855181e-05,-3933.97265625,-662.394287109375,512.512939453125,3006.948486328125,0.0,0.0,0.0,0.0,2.499999936844688e-05,0.02500000037252903,1000.0549926757812,100000000.0,0.30000001192092896
202,1,0.25002071261405945,0.2524999976158142,-0.0002621687308419496,-1.716202859824989e-05,-4497.05859375,-682.1976928710938,153.5169677734375,3215.7275390625,0.0,0.0,0.0,0.0,2.499999936844688e-05,0.02500000037252903,1000.0681762695312,100000000.0,0.30000001192092896
203,1,0.25002071261405945,0.2574999928474426,-0.00026436123880557716,-1.4088072020967957e-05,-4535.95556640625,-673.99365234375,546.259765625,3186.72021484375,0.0,0.0,0.0,0.0,2.499999936844688e-05,0.02500000037252903,1000.068115234375,100000000.0,0.30000001192092896
204,1,0.24502509832382202,0.26249998807907104,-0.000269762851530686,-1.3415044122666586e-05,-4164.4287109375,-157.94332885742188,843.2176513671875,2493.602294921875,0.0,0.0,0.0,0.0,2.499999936844688e-05,0.02500000037252903,1000.0543823242188,100000000.0,0.30000001192092896
205,1,0.24502509832382202,0.26750001311302185,-0.0002716234012041241,-1.1298167919449043e-05,-3450.11572265625,-252.76715087890625,1153.1658935546875,3028.464599609375,0.0,0.0,0.0,0.0,2.499999936844688e-05,0.02500000037252903,1000.0523071289062,100000000.0,0.30000001192092896
206,1,0.25002071261405945,0.26249998807907104,-0.00026631378568708897,-1.1145580174343195e-05,-4793.2314453125,38.62921142578125,909.4722290039062,2576.59130859375,0.0,0.0,0.0,0.0,2.499999936844688e-05,0.02500000037252903,1000.0664672851562,100000000.0,0.30000001192092896
207,1,0.25002071261405945,0.26750001311302185,-0.0002680263132788241,-8.334556696354412e-06,-3866.20947265625,-56.162193298339844,1243.1043701171875,3267.936279296875,0.0,0.0,0.0,0.0,2.499999936844688e-05,0.02500000037252903,1000.0634765625,100000000.0,0.30000001192092896
208,1,0.24502511322498322,0.27250000834465027,-0.0002734740555752069,-9.615931048756465e-06,-3858.697998046875,345.24249267578125,1419.7330322265625,1897.9915771484375,0.0,0.0,0.0,0.0,2.499999936844688e-05,0.02500000037252903,1000.051025390625,100000000.0,0.30000001192092896
209,1,0.2450251281261444,0.2775000035762787,-0.0002753163571469486,-8.368373528355733e-06,-2638.9072265625,466.1855773925781,1643.0284423828125,2807.3212890625,0.0,0.0,0.0,0.0,2.499999936844688e-05,0.02500000037252903,1000.0501708984375,100000000.0,0.30000001192092896
210,1,0.25002074241638184,0.27250000834465027,-0.0002697185263969004,-6.081887022446608e-06,-4308.5576171875,674.890380859375,1518.712646484375,1949.595703125,0.0,0.0,0.0,0.0,2.499999936844688e-05,0.02500000037252903,1000.0606689453125,100000000.0,0.30000001192092896
211,1,0.25002074241638184,0.2775000035762787,-0.0002713919384405017,-4.387617082102224e-06,-2805.283447265625,795.7578125,1736.0804443359375,3069.3935546875,0.0,0.0,0.0,0.0,2.499999936844688e-05,0.02500000037252903,1000.0554809570312,100000000.0,0.30000001192092896
212,1,0.2450251430273056,0.2824999988079071,-0.00027732978924177587,-7.706968062848318e-06,-3101.0625,468.0320739746094,1821.2432861328125,1410.0540771484375,0.0,0.0,0.0,0.0,2.499999936844688e-05,0.02500000037252903,1000.0486450195312,100000000.0,0.30000001192092896
213,1,0.245025172829628,0.2874999940395355,-0.0002795125765260309,-7.631640983163379e-06,-1730.1854248046875,476.2048034667969,1954.3956298828125,2430.80615234375,0.0,0.0,0.0,0.0,2.499999936844688e-05,0.02500000037252903,1000.047607421875,100000000.0,0.30000001192092896
214,1,0.2500207722187042,0.2824999988079071,-0.00027328659780323505,-3.3992596399912145e-06,-3290.160400390625,833.54150390625,1895.1199951171875,1486.2423095703125,0.0,0.0,0.0,0.0,2.499999936844688e-05,0.02500000037252903,1000.0511474609375,100000000.0,0.30000001192092896
215,1,0.2500208020210266,0.2874999940395355,-0.0002754007582552731,-3.116804009550833e-06,-1677.7568359375,841.7489624023438,1996.0169677734375,2686.76416015625,0.0,0.0,0.0,0.0,2.499999936844688e-05,0.02500000037252903,1000.04931640625,100000000.0,0.30000001192092896
216,1,0.245025172829628,0.29249998927116394,-0.0002819760702550411,-8.131941285682842e-06,-2084.26123046875,-25.2647705078125,2038.275634765625,1159.1495361328125,0.0,0.0,0.0,0.0,2.499999936844688e-05,0.02500000037252903,1000.0457763671875,100000000.0,0.30000001192092896
217,1,0.245025172829628,0.29750001430511475,-0.0002847201831173152,-9.207842595060356e-06,-786.7783813476562,-120.08708190917969,2072.66943359375,2123.533203125,0.0,0.0,0.0,0.0,2.499999936844688e-05,0.02500000037252903,1000.04150390625,100000000.0,0.30000001192092896
218,1,0.250020831823349,0.29249998927116394,-0.00027787627186626196,-3.511725708449376e-06,-2107.989013671875,316.4485778808594,2052.6494140625,1190.7225341796875,0.0,0.0,0.0,0.0,2.499999936844688e-05,0.02500000037252903,1000.0482177734375,100000000.0,0.30000001192092896
219,1,0.2500208616256714,0.29750001430511475,-0.0002807131386362016,-4.584029738907702e-06,-641.5922241210938,221.6497039794922,2065.213623046875,2281.951416015625,0.0,0.0,0.0,0.0,2.499999936844688e-05,0.02500000037252903,1000.04638671875,100000000.0,0.30000001192092896
220,1,0.245025172829628,0.30250000953674316,-0.0002877892693504691,-1.0773116628115531e-05,-919.5941772460938,-571.1576538085938,2037.0118408203125,1200.8668212890625,0.0,0.0,0.0,0.0,2.499999936844688e-05,0.02500000037252903,1000.0362548828125,100000000.0,0.30000001192092896
221,1,0.2450251430273056,0.3075000047683716,-0.000291184987872839,-1.2827852515329141e-05,272.63671875,-495.45977783203125,1931.1900634765625,2089.3984375,0.0,0.0,0.0,0.0,2.499999936844688e-05,0.02500000037252903,1000.0267333984375,100000000.0,0.30000001192092896
222,1,0.2500208914279938,0.30250000953674316,-0.0002839509106706828,-6.208284048625501e-06,-1058.068359375,-268.4150390625,2045.484619140625,936.1805419921875,0.0,0.0,0.0,0.0,2.499999936844688e-05,0.02500000037252903,1000.0431518554688,100000000.0,0.30000001192092896
223,1,0.2500208914279938,0.3075000047683716,-0.00028759127599187195,-8.384552529605571e-06,105.82080841064453,-192.73927307128906,1993.540283203125,1803.359619140625,0.0,0.0,0.0,0.0,2.499999936844688e-05,0.02500000037252903,1000.0377197265625,100000000.0,0.30000001192092896
224,1,0.25502094626426697,0.19249999523162842,-0.00024950600345619023,-3.4265747217432363e-07,1526.073486328125,-276.05560302734375,-1409.4300537109375,2172.077392578125,0.0,0.0,0.0,0.0,2.499999936844688e-05,0.02500000037252903,1000.038330078125,100000000.0,0.30000001192092896
225,1,0.2550209164619446,0.19750000536441803,-0.00024687961558811367,-4.5651718210137915e-06,794.8810424804688,-355.9327392578125,-1402.89013671875,1627.517333984375,0.0,0.0,0.0,0.0,2.499999936844688e-05,0.02500000037252903,1000.043701171875,100000000.0,0.30000001192092896
226,1,0.2600206136703491,0.19249999523162842,-0.0002454846107866615,-5.770003213001473e-07,1879.4859619140625,-463.4721374511719,-1196.970947265625,2425.91455078125,0.0,0.0,0.0,0.0,2.499999936844688e-05,0.02500000037252903,1000.0386962890625,100000000.0,0.30000001192092896
227,1,0.26002052426338196,0.19750000536441803,-0.0002424666308797896,-4.931228431814816e-06,1135.531982421875,-543.3311767578125,-1235.17529296875,1872.425537109375,0.0,0.0,0.0,0.0,2.499999936844688e-05,0.02500000037252903,1000.0460205078125,100000000.0,0.30000001192092896
228,1,0.2550208568572998,0.20250000059604645,-0.0002447215374559164,-8.786754733591806e-06,1034.6302490234375,-1315.6025390625,-1416.86376953125,2510.095458984375,0.0,0.0,0.0,0.0,2.499999936844688e-05,0.02500000037252903,1000.0463256835938,100000000.0,0.30000001192092896
229,1,0.25502079725265503,0.20749999582767487,-0.00024303239479195327,-1.3007431334699504e-05,-105.15277862548828,-1300.1644287109375,-1451.2635498046875,1660.7989501953125,0.0,0.0,0.0,0.0,2.499999936844688e-05,0.02500000037252903,1000.0480346679688,100000000.0,0.30000001192092896
230,1,0.2600204050540924,0.20250000059604645,-0.00023987924214452505,-9.37767526920652e-06,1327.59423828125,-1597.6888427734375,-1290.388671875,2650.57373046875,0.0,0.0,0.0,0.0,2.499999936844688e-05,0.02500000037252903,1000.0478515625,100000000.0,0.30000001192092896
231,1,0.2600202262401581,0.20749999582767487,-0.000237723215832375,-1.3916348507336807e-05,328.9244689941406,-1582.23193359375,-1362.1123046875,1908.100830078125,0.0,0.0,0.0,0.0,2.499999936844688e-05,0.02500000037252903,1000.0496826171875,100000000.0,0.30000001192092896
232,1,0.25502070784568787,0.21250000596046448,-0.00024213561846408993,-1.6895546650630422e-05,212.3552703857422,-2135.25830078125,-1477.2607421875,2916.306884765625,0.0,0.0,0.0,0.0,2.499999936844688e-05,0.02500000037252903,1000.0501098632812,100000000.0,0.30000001192092896
233,1,0.2550206184387207,0.2175000011920929,-0.00024203112116083503,-2.0451092495932244e-05,-1418.1925048828125,-2074.5703125,-1494.9658203125,1701.0338134765625,0.0,0.0,0.0,0.0,2.499999936844688e-05,0.02500000037252903,1000.0520629882812,100000000.0,0.30000001192092896
234,1,0.26002004742622375,0.21250000596046448,-0.00023646189947612584,-1.820355282688979e-05,693.7550659179688,-2559.92529296875,-1432.6781005859375,3220.534912109375,0.0,0.0,0.0,0.0,2.499999936844688e-05,0.02500000037252903,1000.0528564453125,100000000.0,0.30000001192092896
235,1,0.2600198984146118,0.2175000011920929,-0.00023609526397194713,-2.2239275494939648e-05,-1062.65283203125,-2499.78955078125,-1502.02587890625,1912.7320556640625,0.0,0.0,0.0,0.0,2.499999936844688e-05,0.02500000037252903,1000.06005859375,100000000.0,0.30000001192092896
236,1,0.25502052903175354,0.2224999964237213,-0.00024281794321723282,-2.3163425794336945e-05,-946.2144775390625,-2687.989990234375,-1461.343994140625,3444.3056640625,0.0,0.0,0.0,0.0,2.499999936844688e-05,0.02500000037252903,1000.0580444335938,100000000.0,0.30000001192092896
237,1,0.2550204396247864,0.22750000655651093,-0.00024449528427794576,-2.503248833818361e-05,-3023.431884765625,-2767.84716796875,-1376.9259033203125,1897.242431640625,0.0,0.0,0.0,0.0,2.499999936844688e-05,0.02500000037252903,1000.0639038085938,100000000.0,0.30000001192092896
238,1,0.2600197494029999,0.2224999964237213,-0.0002368177374592051,-2.5328956326120533e-05,-557.6424560546875,-3244.932373046875,-1519.1044921875,3860.482421875,0.0,0.0,0.0,0.0,2.499999936844688e-05,0.02500000037252903,1000.0671997070312,100000000.0,0.30000001192092896
239,1,0.26001954078674316,0.22750000655651093,-0.0002386286505497992,-2.7472500732983463e-05,-3046.63330078125,-3324.5322265625,-1483.7108154296875,2007.1790771484375,0.0,0.0,0.0,0.0,2.499999936844688e-05,0.02500000037252903,1000.0756225585938,100000000.0,0.30000001192092896
240,1,0.2550203502178192,0.23250000178813934,-0.0002467791782692075,-2.5641378670115955e-05,-2503.70556640625,-2675.640869140625,-1212.8306884765625,3824.50439453125,0.0,0.0,0.0,0.0,2.499999936844688e-05,0.02500000037252903,1000.0686645507812,100000000.0,0.30000001192092896
241,1,0.2550201416015625,0.23749999701976776,-0.0002496703527867794,-2.4990142264869064e-05,-4545.1474609375,-2660.18603515625,-969.0338134765625,2308.080078125,0.0,0.0,0.0,0.0,2.499999936844688e-05,0.02500000037252903,1000.0741577148438,100000000.0,0.30000001192092896
242,1,0.26001936197280884,0.23250000178813934,-0.00024119214504025877,-2.8056449082214385e-05,-2528.91357421875,-3233.30908203125,-1345.947998046875,4232.20458984375,0.0,0.0,0.0,0.0,2.499999936844688e-05,0.02500000037252903,1000.0845336914062,100000000.0,0.30000001192092896
243,1,0.2600191831588745,0.23749999701976776,-0.00024450893397442997,-2.7080921427113935e-05,-5150.77880859375,-3218.5751953125,-1105.617431640625,2278.845458984375,0.0,0.0,0.0,0.0,2.499999936844688e-05,0.02500000037252903,1000.0908203125,100000000.0,0.30000001192092896
244,1,0.25501999258995056,0.24250000715255737,-0.00025258338428102434,-2.3159302145359106e-05,-4180.29345703125,-1872.6201171875,-652.994384765625,3790.2392578125,0.0,0.0,0.0,0.0,2.499999936844688e-05,0.02500000037252903,1000.0796508789062,100000000.0,0.30000001192092896
245,1,0.2550199031829834,0.2475000023841858,-0.0002555181854404509,-2.0148860130575486e-05,-5447.83544921875,-1812.3304443359375,-264.6224365234375,2842.494873046875,0.0,0.0,0.0,0.0,2.499999936844688e-05,0.02500000037252903,1000.083251953125,100000000.0,0.30000001192092896
246,1,0.2600189745426178,0.24250000715255737,-0.00024778585066087544,-2.461476469761692e-05,-4807.34765625,-2222.996826171875,-765.6220092773438,4021.844970703125,0.0,0.0,0.0,0.0,2.499999936844688e-05,0.02500000037252903,1000.0952758789062,100000000.0,0.30000001192092896
247,1,0.26001885533332825,0.2475000023841858,-0.00025102266226895154,-2.0658062567235902e-05,-6464.32568359375,-2162.39501953125,-325.852783203125,2786.504638671875,0.0,0.0,0.0,0.0,2.499999936844688e-05,0.02500000037252903,1000.0985107421875,100000000.0,0.30000001192092896
248,1,0.25501978397369385,0.2524999976158142,-0.0002580644213594496,-1.658987093833275e-05,-5425.509765625,-690.2020263671875,146.22300720214844,3264.484375,0.0,0.0,0.0,0.0,2.499999936844688e-05,0.02500000037252903,1000.084716796875,100000000.0,0.30000001192092896
249,1,0.2550197243690491,0.2574999928474426,-0.00026022118981927633,-1.248227636096999e-05,-5453.55615234375,-682.0138549804688,579.5455932617188,3242.882568359375,0.0,0.0,0.0,0.0,2.499999936844688e-05,0.02500000037252903,1000.0839233398438,100000000.0,0.30000001192092896
250,1,0.2600187659263611,0.2524999976158142,-0.0002536859828978777,-1.6054602383519523e-05,-6470.05322265625,-694.3701171875,142.55462646484375,3270.159912109375,0.0,0.0,0.0,0.0,2.499999936844688e-05,0.02500000037252903,1000.0999145507812,100000000.0,0.30000001192092896
251,1,0.2600187063217163,0.2574999928474426,-0.00025577505584806204,-1.0804315024870448e-05,-6447.91552734375,-686.1677856445312,639.5678100585938,3285.77880859375,0.0,0.0,0.0,0.0,2.499999936844688e-05,0.02500000037252903,1000.0994262695312,100000000.0,0.30000001192092896
252,1,0.2550197243690491,0.26249998807907104,-0.00026202676235698164,-8.617195817350876e-06,-5813.28466796875,315.0924072265625,974.6990966796875,2431.4091796875,0.0,0.0,0.0,0.0,2.499999936844688e-05,0.02500000037252903,1000.08203125,100000000.0,0.30000001192092896
253,1,0.25501975417137146,0.26750001311302185,-0.0002634810807649046,-4.994623850507196e-06,-4678.64208984375,220.32418823242188,1331.641845703125,3276.14599609375,0.0,0.0,0.0,0.0,2.499999936844688e-05,0.02500000037252903,1000.0762939453125,100000000.0,0.30000001192092896
254,1,0.2600187659263611,0.26249998807907104,-0.00025738924159668386,-5.941234576312127e-06,-6837.85986328125,630.1563110351562,1080.0079345703125,2303.920654296875,0.0,0.0,0.0,0.0,2.499999936844688e-05,0.02500000037252903,1000.0968017578125,100000000.0,0.30000001192092896
255,1,0.26001882553100586,0.26750001311302185,-0.00025852868566289544,-1.465390482735529e-06,-5309.48779296875,535.3903198242188,1463.7208251953125,3440.686279296875,0.0,0.0,0.0,0.0,2.499999936844688e-05,0.02500000037252903,1000.0924072265625,100000000.0,0.30000001192092896
256,1,0.25501981377601624,0.27250000834465027,-0.0002649266389198601,-2.1307591850927565e-06,-5273.3203125,1112.2235107421875,1615.791259765625,1600.7286376953125,0.0,0.0,0.0,0.0,2.499999936844688e-05,0.02500000037252903,1000.0706787109375,100000000.0,0.30000001192092896
257,1,0.2550199031829834,0.2775000035762787,-0.0002663649502210319,-2.5572582273980515e-08,-3494.044677734375,1233.0855712890625,1827.478515625,2930.5703125,0.0,0.0,0.0,0.0,2.499999936844688e-05,0.02500000037252903,1000.0662231445312,100000000.0,0.30000001192092896
258,1,0.260018914937973,0.27250000834465027,-0.0002596873673610389,2.014048959608772e-06,-5941.83642578125,1595.9332275390625,1750.6279296875,1464.7169189453125,0.0,0.0,0.0,0.0,2.499999936844688e-05,0.02500000037252903,1000.0872192382812,100000000.0,0.30000001192092896
259,1,0.2600190341472626,0.2775000035762787,-0.0002608668291941285,4.4971375245950185e-06,-3708.371826171875,1716.806396484375,1940.6298828125,3129.081298828125,0.0,0.0,0.0,0.0,2.499999936844688e-05,0.02500000037252903,1000.0794677734375,100000000.0,0.30000001192092896
260,1,0.25501999258995056,0.2824999988079071,-0.0002681112091522664,1.2044844197589555e-06,-4111.14599609375,1291.725341796875,1967.8935546875,1010.7433471679688,0.0,0.0,0.0,0.0,2.499999936844688e-05,0.02500000037252903,1000.0604858398438,100000000.0,0.30000001192092896
261,1,0.2550201117992401,0.2874999940395355,-0.00027016375679522753,1.5594401929774904e-06,-2250.784912109375,1299.89990234375,2036.94482421875,2395.3203125,0.0,0.0,0.0,0.0,2.499999936844688e-05,0.02500000037252903,1000.0535888671875,100000000.0,0.30000001192092896
262,1,0.2600191831588745,0.2824999988079071,-0.0002624593616928905,5.921403499087319e-06,-4372.3876953125,1786.9539794921875,2047.44189453125,916.241943359375,0.0,0.0,0.0,0.0,2.499999936844688e-05,0.02500000037252903,1000.0697631835938,100000000.0,0.30000001192092896
263,1,0.26001930236816406,0.2874999940395355,-0.00026446342235431075,6.286758434725925e-06,-2197.181396484375,1795.1339111328125,2070.75634765625,2535.5732421875,0.0,0.0,0.0,0.0,2.499999936844688e-05,0.02500000037252903,1000.0631713867188,100000000.0,0.30000001192092896
264,1,0.25502023100852966,0.29249998927116394,-0.0002726641541812569,1.1635820555966347e-06,-2699.8515625,725.020263671875,2067.02783203125,744.1903686523438,0.0,0.0,0.0,0.0,2.499999936844688e-05,0.02500000037252903,1000.0493774414062,100000000.0,0.30000001192092896
265,1,0.2550203502178192,0.29750001430511475,-0.00027561243041418493,1.690106365970223e-08,-1050.2705078125,630.2047119140625,2058.088134765625,1971.958984375,0.0,0.0,0.0,0.0,2.499999936844688e-05,0.02500000037252903,1000.0482177734375,100000000.0,0.30000001192092896
266,1,0.2600194215774536,0.29249998927116394,-0.00026700430316850543,5.832444912812207e-06,-2705.102783203125,1147.2796630859375,2051.591064453125,700.6351318359375,0.0,0.0,0.0,0.0,2.499999936844688e-05,0.02500000037252903,1000.05419921875,100000000.0,0.30000001192092896
267,1,0.26001954078674316,0.29750001430511475,-0.000270082033239305,4.5584547478938475e-06,-1034.73486328125,1052.4757080078125,1990.552490234375,1944.507568359375,0.0,0.0,0.0,0.0,2.499999936844688e-05,0.02500000037252903,1000.0492553710938,100000000.0,0.30000001192092896
268,1,0.255020409822464,0.30250000953674316,-0.00027894775848835707,-1.685848701526993e-06,-1409.092041015625,23.5052433013916,2054.86962890625,655.6409912109375,0.0,0.0,0.0,0.0,2.499999936844688e-05,0.02500000037252903,1000.046875,100000000.0,0.30000001192092896
269,1,0.25502046942710876,0.3075000047683716,-0.00028267171001061797,-3.944622676499421e-06,-272.2405700683594,99.16492462158203,2057.274169921875,1502.66162109375,0.0,0.0,0.0,0.0,2.499999936844688e-05,0.02500000037252903,1000.0447998046875,100000000.0,0.30000001192092896
270,1,0.2600196301937103,0.30250000953674316,-0.0002735670132096857,2.7372627755539725e-06,-1237.8994140625,330.57012939453125,1920.846923828125,752.5543823242188,0.0,0.0,0.0,0.0,2.499999936844688e-05,0.02500000037252903,1000.0479125976562,100000000.0,0.30000001192092896
271,1,0.2600197196006775,0.3075000047683716,-0.00027746075647883117,3.6890980936732376e-07,164.3754425048828,406.2052917480469,1843.154296875,1797.2576904296875,0.0,0.0,0.0,0.0,2.499999936844688e-05,0.02500000037252903,1000.0452880859375,100000000.0,0.30000001192092896
272,1,0.26502010226249695,0.19249999523162842,-0.0002414769696770236,-2.633159112974681e-07,1831.3592529296875,-660.5145263671875,-987.7642211914062,2265.0546875,0.0,0.0,0.0,0.0,2.499999936844688e-05,0.02500000037252903,1000.0393676757812,100000000.0,0.30000001192092896
273,1,0.265019953250885,0.19750000536441803,-0.00023747682280372828,-4.678110599343199e-06,1060.1800537109375,-740.4259033203125,-1069.8604736328125,1692.0474853515625,0.0,0.0,0.0,0.0,2.499999936844688e-05,0.02500000037252903,1000.047119140625,100000000.0,0.30000001192092896
274,1,0.27001953125,0.19750000536441803,-0.00023234152467921376,-4.126565727347042e-06,877.615966796875,-908.6151123046875,-851.4143676757812,1431.3883056640625,0.0,0.0,0.0,0.0,2.499999936844688e-05,0.02500000037252903,1000.0484008789062,100000000.0,0.30000001192092896
275,1,0.26501980423927307,0.20250000059604645,-0.00023411709116771817,-9.387121281179134e-06,1234.7103271484375,-1822.854736328125,-1165.3856201171875,2407.905517578125,0.0,0.0,0.0,0.0,2.499999936844688e-05,0.02500000037252903,1000.0490112304688,100000000.0,0.30000001192092896
276,1,0.26501965522766113,0.20749999582767487,-0.0002313983568456024,-1.4390354408533312e-05,393.98834228515625,-1807.274169921875,-1274.13623046875,1781.0560302734375,0.0,0.0,0.0,0.0,2.499999936844688e-05,0.02500000037252903,1000.0515747070312,100000000.0,0.30000001192092896
277,1,0.2700192928314209,0.20250000059604645,-0.00022825504129286855,-9.136373591900337e-06,1187.2208251953125,-2029.2791748046875,-936.6316528320312,2173.482666015625,0.0,0.0,0.0,0.0,2.499999936844688e-05,0.02500000037252903,1000.0493774414062,100000000.0,0.30000001192092896
278,1,0.27001896500587463,0.20749999582767487,-0.0002249108802061528,-1.4631631529482547e-05,452.091552734375,-2013.8350830078125,-1067.6910400390625,1625.9610595703125,0.0,0.0,0.0,0.0,2.499999936844688e-05,0.02500000037252903,1000.0567626953125,100000000.0,0.30000001192092896
279,1,0.2650194466114044,0.21250000596046448,-0.0002296280290465802,-1.9315426470711827e-05,752.5424194335938,-3031.82666015625,-1388.8692626953125,3076.640869140625,0.0,0.0,0.0,0.0,2.499999936844688e-05,0.02500000037252903,1000.0595092773438,100000000.0,0.30000001192092896
280,1,0.26501917839050293,0.2175000011920929,-0.00022880600590724498,-2.4162280169548467e-05,-1121.5355224609375,-2971.1337890625,-1509.3568115234375,1680.1221923828125,0.0,0.0,0.0,0.0,2.499999936844688e-05,0.02500000037252903,1000.0681762695312,100000000.0,0.30000001192092896
281,1,0.2700185477733612,0.21250000596046448,-0.00022254334180615842,-2.0284500351408496e-05,829.6170043945312,-3504.485107421875,-1229.4722900390625,2892.1650390625,0.0,0.0,0.0,0.0,2.499999936844688e-05,0.02500000037252903,1000.0671997070312,100000000.0,0.30000001192092896
282,1,0.27001821994781494,0.2175000011920929,-0.0002211521059507504,-2.609489456517622e-05,-973.4470825195312,-3443.84765625,-1421.85888671875,1549.3709716796875,0.0,0.0,0.0,0.0,2.499999936844688e-05,0.02500000037252903,1000.0762329101562,100000000.0,0.30000001192092896
283,1,0.26501885056495667,0.2224999964237213,-0.00022936570167075843,-2.7974105250905268e-05,-566.1415405273438,-3958.107421875,-1575.9869384765625,3850.770751953125,0.0,0.0,0.0,0.0,2.499999936844688e-05,0.02500000037252903,1000.0782470703125,100000000.0,0.30000001192092896
284,1,0.26501843333244324,0.22750000655651093,-0.00023130635963752866,-3.0750790756428614e-05,-3461.108642578125,-4037.926513671875,-1588.908203125,1696.9014892578125,0.0,0.0,0.0,0.0,2.499999936844688e-05,0.02500000037252903,1000.088623046875,100000000.0,0.30000001192092896
285,1,0.2700178623199463,0.2224999964237213,-0.00022147844720166177,-3.0803188565187156e-05,-366.3953552246094,-4733.0439453125,-1575.93359375,3931.0595703125,0.0,0.0,0.0,0.0,2.499999936844688e-05,0.02500000037252903,1000.08935546875,100000000.0,0.30000001192092896
286,1,0.27001768350601196,0.22750000655651093,-0.00022352123050950468,-3.4409473300911486e-05,-3811.29248046875,-4812.869140625,-1691.4658203125,1368.1754150390625,0.0,0.0,0.0,0.0,2.499999936844688e-05,0.02500000037252903,1000.099853515625,100000000.0,0.30000001192092896
287,1,0.2650182247161865,0.23250000178813934,-0.00023425162362400442,-3.149811163893901e-05,-2735.653076171875,-4014.68603515625,-1477.125732421875,4489.74072265625,0.0,0.0,0.0,0.0,2.499999936844688e-05,0.02500000037252903,1000.0972290039062,100000000.0,0.30000001192092896
288,1,0.26501795649528503,0.23749999701976776,-0.00023820248316042125,-3.0216080631362274e-05,-5939.9228515625,-3999.217529296875,-1240.3599853515625,2107.22998046875,0.0,0.0,0.0,0.0,2.499999936844688e-05,0.02500000037252903,1000.1046142578125,100000000.0,0.30000001192092896
289,1,0.2700175344944,0.23250000178813934,-0.00022688171884510666,-3.5424280213192105e-05,-3126.283447265625,-4902.30078125,-1643.169677734375,4602.7841796875,0.0,0.0,0.0,0.0,2.499999936844688e-05,0.02500000037252903,1000.1129150390625,100000000.0,0.30000001192092896
290,1,0.2700173854827881,0.23749999701976776,-0.00023156055249273777,-3.384780211490579e-05,-7432.640625,-4886.85205078125,-1430.62060546875,1396.0906982421875,0.0,0.0,0.0,0.0,2.499999936844688e-05,0.02500000037252903,1000.12158203125,100000000.0,0.30000001192092896
291,1,0.2650178074836731,0.24250000715255737,-0.0002419929369352758,-2.6933512344839983e-05,-5372.826171875,-2719.646484375,-876.7337036132812,4431.18505859375,0.0,0.0,0.0,0.0,2.499999936844688e-05,0.02500000037252903,1000.111572265625,100000000.0,0.30000001192092896
292,1,0.26501771807670593,0.2475000023841858,-0.0002456229995004833,-2.1650392227456905e-05,-7414.93408203125,-2658.986572265625,-386.2539978027344,2914.039306640625,0.0,0.0,0.0,0.0,2.499999936844688e-05,0.02500000037252903,1000.1159057617188,100000000.0,0.30000001192092896
293,1,0.2700172960758209,0.24250000715255737,-0.00023592177603859454,-2.9648273994098417e-05,-6953.69384765625,-3284.999267578125,-1037.200439453125,4149.3818359375,0.0,0.0,0.0,0.0,2.499999936844688e-05,0.02500000037252903,1000.1260375976562,100000000.0,0.30000001192092896
294,1,0.27001723647117615,0.2475000023841858,-0.00023996541858650744,-2.2825710402685218e-05,-9692.6767578125,-3224.3388671875,-462.8791809082031,2110.888671875,0.0,0.0,0.0,0.0,2.499999936844688e-05,0.02500000037252903,1000.1309204101562,100000000.0,0.30000001192092896
295,1,0.26501768827438354,0.2524999976158142,-0.00024837732780724764,-1.5600151527905837e-05,-7393.0576171875,-679.6289672851562,138.87118530273438,3535.73095703125,0.0,0.0,0.0,0.0,2.499999936844688e-05,0.02500000037252903,1000.1174926757812,100000000.0,0.30000001192092896
296,1,0.26501771807670593,0.2574999928474426,-0.00025025513605214655,-8.782690201769583e-06,-7320.85302734375,-671.449462890625,698.6785888671875,3588.08544921875,0.0,0.0,0.0,0.0,2.499999936844688e-05,0.02500000037252903,1000.1168823242188,100000000.0,0.30000001192092896
297,1,0.27001723647117615,0.2524999976158142,-0.00024277885677292943,-1.5113552763068583e-05,-9718.10546875,-650.2213134765625,153.41477966308594,2823.785400390625,0.0,0.0,0.0,0.0,2.499999936844688e-05,0.02500000037252903,1000.1326904296875,100000000.0,0.30000001192092896
298,1,0.27001723647117615,0.2574999928474426,-0.0002443614066578448,-6.511713309009792e-06,-9468.6142578125,-642.0198974609375,811.6760864257812,3009.26318359375,0.0,0.0,0.0,0.0,2.499999936844688e-05,0.02500000037252903,1000.13232421875,100000000.0,0.30000001192092896
299,1,0.2650177478790283,0.26249998807907104,-0.00025149216526187956,-2.64281743511674e-06,-7895.88525390625,1094.677490234375,1183.648681640625,2218.254150390625,0.0,0.0,0.0,0.0,2.499999936844688e-05,0.02500000037252903,1000.1134033203125,100000000.0,0.30000001192092896
300,1,0.2650178372859955,0.26750001311302185,-0.00025208841543644667,2.8194988317409297e-06,-5980.08251953125,999.8240966796875,1593.7255859375,3645.470947265625,0.0,0.0,0.0,0.0,2.499999936844688e-05,0.02500000037252903,1000.107666015625,100000000.0,0.30000001192092896
301,1,0.2700172960758209,0.26249998807907104,-0.0002451228501740843,1.0311341611668468e-06,-10063.0126953125,1634.341796875,1355.13671875,1331.05810546875,0.0,0.0,0.0,0.0,2.499999936844688e-05,0.02500000037252903,1000.1286010742188,100000000.0,0.30000001192092896
302,1,0.2700173854827881,0.26750001311302185,-0.00024506315821781754,7.514976914535509e-06,-7364.20458984375,1539.568359375,1783.763671875,3337.783203125,0.0,0.0,0.0,0.0,2.499999936844688e-05,0.02500000037252903,1000.1229858398438,100000000.0,0.30000001192092896
303,1,0.2650180160999298,0.27250000834465027,-0.0002528078621253371,6.9012940002721734e-06,-6860.791015625,2252.56201171875,1883.1822509765625,1082.73193359375,0.0,0.0,0.0,0.0,2.499999936844688e-05,0.02500000037252903,1000.0999145507812,100000000.0,0.30000001192092896
304,1,0.26501819491386414,0.2775000035762787,-0.00025365216424688697,9.602564205124509e-06,-4173.6279296875,2373.5927734375,2052.24658203125,3083.9306640625,0.0,0.0,0.0,0.0,2.499999936844688e-05,0.02500000037252903,1000.09130859375,100000000.0,0.30000001192092896
305,1,0.27001747488975525,0.27250000834465027,-0.00024528519134037197,1.2158354365965351e-05,-8275.70703125,2982.93017578125,2050.3818359375,294.7057800292969,0.0,0.0,0.0,0.0,2.499999936844688e-05,0.02500000037252903,1000.1168823242188,100000000.0,0.30000001192092896
306,1,0.2700175940990448,0.2775000035762787,-0.00024579031742177904,1.496141339885071e-05,-4900.19287109375,3103.802490234375,2155.10205078125,2810.014404296875,0.0,0.0,0.0,0.0,2.499999936844688e-05,0.02500000037252903,1000.1044921875,100000000.0,0.30000001192092896
307,1,0.2650183141231537,0.2824999988079071,-0.0002550880890339613,1.1023204933735542e-05,-4993.67236328125,2403.8544921875,2125.600341796875,435.4244689941406,0.0,0.0,0.0,0.0,2.499999936844688e-05,0.02500000037252903,1000.0828857421875,100000000.0,0.30000001192092896
308,1,0.2650185227394104,0.2874999940395355,-0.00025711386115290225,1.1163304407091346e-05,-2492.079833984375,2412.048583984375,2103.576171875,2296.15869140625,0.0,0.0,0.0,0.0,2.499999936844688e-05,0.02500000037252903,1000.070068359375,100000000.0,0.30000001192092896
309,1,0.27001774311065674,0.2824999988079071,-0.0002471055486239493,1.6258400137303397e-05,-5775.02294921875,3064.043212890625,2157.622802734375,-218.9294891357422,0.0,0.0,0.0,0.0,2.499999936844688e-05,0.02500000037252903,1000.0931396484375,100000000.0,0.30000001192092896
310,1,0.27001795172691345,0.2874999940395355,-0.00024922925513237715,1.6049236364779063e-05,-2932.5595703125,3072.256591796875,2058.044677734375,1897.4466552734375,0.0,0.0,0.0,0.0,2.499999936844688e-05,0.02500000037252903,1000.0816040039062,100000000.0,0.30000001192092896
311,1,0.2650187611579895,0.29249998927116394,-0.0002597742131911218,1.0414476491860114e-05,-3083.345947265625,1580.57373046875,2036.0355224609375,245.35060119628906,0.0,0.0,0.0,0.0,2.499999936844688e-05,0.02500000037252903,1000.0635986328125,100000000.0,0.30000001192092896
312,1,0.26501893997192383,0.29750001430511475,-0.00026306931977160275,8.776629329076968e-06,-1376.4825439453125,1485.765625,1923.396240234375,1516.031982421875,0.0,0.0,0.0,0.0,2.499999936844688e-05,0.02500000037252903,1000.05322265625,100000000.0,0.30000001192092896
313,1,0.27001819014549255,0.29249998927116394,-0.00025208081933669746,1.4909153833286837e-05,-3493.060791015625,2030.2667236328125,1925.5411376953125,-281.5691223144531,0.0,0.0,0.0,0.0,2.499999936844688e-05,0.02500000037252903,1000.0687255859375,100000000.0,0.30000001192092896
314,1,0.2700183689594269,0.29750001430511475,-0.0002556602703407407,1.2838074326282367e-05,-1575.229248046875,1935.2725830078125,1760.177734375,1147.682373046875,0.0,0.0,0.0,0.0,2.499999936844688e-05,0.02500000037252903,1000.0586547851562,100000000.0,0.30000001192092896
315,1,0.26501911878585815,0.30250000953674316,-0.00026708043878898025,6.619955001951894e-06,-1528.2969970703125,740.6944580078125,1788.6661376953125,298.74969482421875,0.0,0.0,0.0,0.0,2.499999936844688e-05,0.02500000037252903,1000.0487670898438,100000000.0,0.30000001192092896
316,1,0.2650192677974701,0.3075000047683716,-0.0002718092000577599,3.944468971894821e-06,158.7013397216797,816.3244018554688,1632.4124755859375,1553.1600341796875,0.0,0.0,0.0,0.0,2.499999936844688e-05,0.02500000037252903,1000.0457763671875,100000000.0,0.30000001192092896
317,1,0.2700185477733612,0.30250000953674316,-0.00026017348864115775,1.0284803465765435e-05,-2072.900390625,1119.193115234375,1642.511474609375,-341.99517822265625,0.0,0.0,0.0,0.0,2.499999936844688e-05,0.02500000037252903,1000.0494384765625,100000000.0,0.30000001192092896
318,1,0.2750188410282135,0.19750000536441803,-0.00022690900368615985,-2.4121964088408276e-06,1820.1376953125,-909.7338256835938,-633.0563354492188,2117.489990234375,0.0,0.0,0.0,0.0,2.499999936844688e-05,0.02500000037252903,1000.0491333007812,100000000.0,0.30000001192092896
319,1,0.2800181806087494,0.19750000536441803,-0.0002221164759248495,-2.839697685885767e-07,3081.29052734375,-957.858642578125,-117.10669708251953,2957.666748046875,0.0,0.0,0.0,0.0,2.499999936844688e-05,0.02500000037252903,1000.0475463867188,100000000.0,0.30000001192092896
320,1,0.27501848340034485,0.20250000059604645,-0.00022269728651735932,-7.911983630037867e-06,2026.8843994140625,-2195.560791015625,-709.9638671875,2540.14306640625,0.0,0.0,0.0,0.0,2.499999936844688e-05,0.02500000037252903,1000.0504760742188,100000000.0,0.30000001192092896
321,1,0.2750181257724762,0.20749999582767487,-0.0002184480254072696,-1.391945897921687e-05,1413.4278564453125,-2180.1259765625,-864.024169921875,2082.64794921875,0.0,0.0,0.0,0.0,2.499999936844688e-05,0.02500000037252903,1000.0606689453125,100000000.0,0.30000001192092896
322,1,0.2800178825855255,0.20250000059604645,-0.0002174711407860741,-6.261818725761259e-06,2587.3623046875,-2326.28076171875,-301.71893310546875,2693.945556640625,0.0,0.0,0.0,0.0,2.499999936844688e-05,0.02500000037252903,1000.0499267578125,100000000.0,0.30000001192092896
323,1,0.2800176441669464,0.20749999582767487,-0.00021222219220362604,-1.2765929568558931e-05,2377.697998046875,-2310.84326171875,-444.6453857421875,2537.253173828125,0.0,0.0,0.0,0.0,2.499999936844688e-05,0.02500000037252903,1000.0636596679688,100000000.0,0.30000001192092896
324,1,0.27501779794692993,0.21250000596046448,-0.0002151005028281361,-2.0600326024577953e-05,1601.7081298828125,-3953.815185546875,-1072.7880859375,3039.123046875,0.0,0.0,0.0,0.0,2.499999936844688e-05,0.02500000037252903,1000.0713500976562,100000000.0,0.30000001192092896
325,1,0.2750175893306732,0.2175000011920929,-0.00021265450050123036,-2.7954507459071465e-05,-131.4749298095703,-3893.099365234375,-1336.266845703125,1747.7318115234375,0.0,0.0,0.0,0.0,2.499999936844688e-05,0.02500000037252903,1000.08642578125,100000000.0,0.30000001192092896
326,1,0.28001734614372253,0.21250000596046448,-0.0002077398676192388,-2.0579325791914016e-05,2811.704833984375,-4333.7294921875,-683.7669677734375,3448.7783203125,0.0,0.0,0.0,0.0,2.499999936844688e-05,0.02500000037252903,1000.076171875,100000000.0,0.30000001192092896
327,1,0.2800171375274658,0.2175000011920929,-0.00020402389054652303,-2.9701825042138807e-05,1929.36083984375,-4273.0791015625,-1019.0704345703125,2790.82421875,0.0,0.0,0.0,0.0,2.499999936844688e-05,0.02500000037252903,1000.0923461914062,100000000.0,0.30000001192092896
328,1,0.2750173509120941,0.2224999964237213,-0.00021242692309897393,-3.425554314162582e-05,395.2476806640625,-5717.79345703125,-1576.3509521484375,4164.1259765625,0.0,0.0,0.0,0.0,2.499999936844688e-05,0.02500000037252903,1000.0982666015625,100000000.0,0.30000001192092896
329,1,0.2750171720981598,0.22750000655651093,-0.0002144167956430465,-3.950339669245295e-05,-3596.810302734375,-5797.55029296875,-1793.175537109375,1193.9471435546875,0.0,0.0,0.0,0.0,2.499999936844688e-05,0.02500000037252903,1000.114501953125,100000000.0,0.30000001192092896
330,1,0.2800169289112091,0.2224999964237213,-0.00020306282385718077,-3.79278753825929e-05,2591.2783203125,-6774.98779296875,-1397.6400146484375,5332.8125,0.0,0.0,0.0,0.0,2.499999936844688e-05,0.02500000037252903,1000.1090698242188,100000000.0,0.30000001192092896
331,1,0.28001669049263,0.22750000655651093,-0.0002048559399554506,-4.525729309534654e-05,-2049.40869140625,-6854.7919921875,-1819.4285888671875,1876.6649169921875,0.0,0.0,0.0,0.0,2.499999936844688e-05,0.02500000037252903,1000.1233520507812,100000000.0,0.30000001192092896
332,1,0.27501702308654785,0.23250000178813934,-0.00021829211618751287,-4.1218390833819285e-05,-2607.401611328125,-6212.07568359375,-1807.255126953125,5329.62255859375,0.0,0.0,0.0,0.0,2.499999936844688e-05,0.02500000037252903,1000.1239624023438,100000000.0,0.30000001192092896
333,1,0.2750168740749359,0.23749999701976776,-0.00022405345225706697,-3.940073656849563e-05,-8008.79296875,-6196.5888671875,-1618.6051025390625,1306.83251953125,0.0,0.0,0.0,0.0,2.499999936844688e-05,0.02500000037252903,1000.13330078125,100000000.0,0.30000001192092896
334,1,0.2800165116786957,0.23250000178813934,-0.0002092346694553271,-4.791314131580293e-05,-1278.6226806640625,-7741.61376953125,-1969.176513671875,6617.64208984375,0.0,0.0,0.0,0.0,2.499999936844688e-05,0.02500000037252903,1000.1361694335938,100000000.0,0.30000001192092896
335,1,0.2800162732601166,0.23749999701976776,-0.00021619972540065646,-4.589562740875408e-05,-9031.8662109375,-7726.08642578125,-1846.9508056640625,845.1438598632812,0.0,0.0,0.0,0.0,2.499999936844688e-05,0.02500000037252903,1000.1537475585938,100000000.0,0.30000001192092896
336,1,0.27501678466796875,0.24250000715255737,-0.00022917837486602366,-3.386585376574658e-05,-7130.3330078125,-4118.1533203125,-1195.7601318359375,5126.94970703125,0.0,0.0,0.0,0.0,2.499999936844688e-05,0.02500000037252903,1000.142822265625,100000000.0,0.30000001192092896
337,1,0.275016725063324,0.2475000023841858,-0.00023366688401438296,-2.4613762434455566e-05,-10565.8818359375,-4057.67236328125,-538.6213989257812,2570.4208984375,0.0,0.0,0.0,0.0,2.499999936844688e-05,0.02500000037252903,1000.150390625,100000000.0,0.30000001192092896
338,1,0.2800161838531494,0.24250000715255737,-0.00022211448231246322,-3.879202631651424e-05,-8432.890625,-5073.12451171875,-1389.64892578125,5362.919921875,0.0,0.0,0.0,0.0,2.499999936844688e-05,0.02500000037252903,1000.1649169921875,100000000.0,0.30000001192092896
339,1,0.280016154050827,0.2475000023841858,-0.00022697912936564535,-2.6602239813655615e-05,-13102.552734375,-5012.51904296875,-597.3919067382812,1885.8709716796875,0.0,0.0,0.0,0.0,2.499999936844688e-05,0.02500000037252903,1000.172607421875,100000000.0,0.30000001192092896
340,1,0.2750166952610016,0.2524999976158142,-0.00023637613048776984,-1.4358687622006983e-05,-10570.15625,-552.734619140625,167.6383819580078,3462.014892578125,0.0,0.0,0.0,0.0,2.499999936844688e-05,0.02500000037252903,1000.1531982421875,100000000.0,0.30000001192092896
341,1,0.275016725063324,0.2574999928474426,-0.00023730535758659244,-3.100518597420887e-06,-10145.041015625,-544.5585327148438,923.0343627929688,3779.59228515625,0.0,0.0,0.0,0.0,2.499999936844688e-05,0.02500000037252903,1000.1521606445312,100000000.0,0.30000001192092896
342,1,0.28001612424850464,0.2524999976158142,-0.00022947088291402906,-1.3317711818672251e-05,-13186.1943359375,-410.8115539550781,243.02732849121094,2892.254638671875,0.0,0.0,0.0,0.0,2.499999936844688e-05,0.02500000037252903,1000.1763305664062,100000000.0,0.30000001192092896
343,1,0.28001612424850464,0.2574999928474426,-0.00022958892805036157,1.0616371355354204e-06,-12242.6044921875,-402.64727783203125,1131.644775390625,3594.17431640625,0.0,0.0,0.0,0.0,2.499999936844688e-05,0.02500000037252903,1000.1743774414062,100000000.0,0.30000001192092896
344,1,0.27501681447029114,0.26249998807907104,-0.000237189611652866,6.320015472738305e-06,-11106.7529296875,2471.076904296875,1524.2198486328125,1322.8968505859375,0.0,0.0,0.0,0.0,2.499999936844688e-05,0.02500000037252903,1000.1470336914062,100000000.0,0.30000001192092896
345,1,0.2750168740749359,0.26750001311302185,-0.00023602900910191238,1.3902792488806881e-05,-7637.51220703125,2376.157470703125,1971.099365234375,3905.405517578125,0.0,0.0,0.0,0.0,2.499999936844688e-05,0.02500000037252903,1000.13720703125,100000000.0,0.30000001192092896
346,1,0.2800161838531494,0.26249998807907104,-0.0002284325018990785,1.2566515579237603e-05,-13154.7265625,3461.33447265625,1786.6988525390625,568.0337524414062,0.0,0.0,0.0,0.0,2.499999936844688e-05,0.02500000037252903,1000.1686401367188,100000000.0,0.30000001192092896
347,1,0.2800162434577942,0.26750001311302185,-0.00022600166266784072,2.1196810848778114e-05,-8064.5751953125,3366.6015625,2208.112548828125,4358.1611328125,0.0,0.0,0.0,0.0,2.499999936844688e-05,0.02500000037252903,1000.1602172851562,100000000.0,0.30000001192092896
348,1,0.2750169634819031,0.27250000834465027,-0.00023555582447443157,1.8880184143199585e-05,-8945.8544921875,3975.609619140625,2215.259765625,-101.53800201416016,0.0,0.0,0.0,0.0,2.499999936844688e-05,0.02500000037252903,1000.1280517578125,100000000.0,0.30000001192092896
349,1,0.2750171422958374,0.2775000035762787,-0.00023577122192364186,2.1252428268780932e-05,-4884.10693359375,4096.4658203125,2256.7060546875,2922.5751953125,0.0,0.0,0.0,0.0,2.499999936844688e-05,0.02500000037252903,1000.1171264648438,100000000.0,0.30000001192092896
350,1,0.28001633286476135,0.27250000834465027,-0.00022480072220787406,2.6322704798076302e-05,-9312.9990234375,5080.57470703125,2362.845458984375,-371.2389221191406,0.0,0.0,0.0,0.0,2.499999936844688e-05,0.02500000037252903,1000.1464233398438,100000000.0,0.30000001192092896
351,1,0.2800167202949524,0.2775000035762787,-0.00022483027714770287,2.7944803150603548e-05,-4207.76708984375,5201.37255859375,2250.842529296875,3432.250244140625,0.0,0.0,0.0,0.0,2.499999936844688e-05,0.02500000037252903,1000.1275634765625,100000000.0,0.30000001192092896
352,1,0.27501732110977173,0.2824999988079071,-0.00023718166630715132,2.190741361118853e-05,-5866.69921875,3855.720458984375,2189.12158203125,-562.7262573242188,0.0,0.0,0.0,0.0,2.499999936844688e-05,0.02500000037252903,1000.1033325195312,100000000.0,0.30000001192092896
353,1,0.27501749992370605,0.2874999940395355,-0.00023978573153726757,2.084500556520652e-05,-2685.244384765625,3863.929931640625,2013.01513671875,1806.88232421875,0.0,0.0,0.0,0.0,2.499999936844688e-05,0.02500000037252903,1000.089599609375,100000000.0,0.30000001192092896
354,1,0.2800168991088867,0.2824999988079071,-0.0002264889481011778,2.767589467111975e-05,-5258.87060546875,4664.46630859375,2045.0380859375,-472.0967102050781,0.0,0.0,0.0,0.0,2.499999936844688e-05,0.02500000037252903,1000.1141967773438,100000000.0,0.30000001192092896
355,1,0.28001710772514343,0.2874999940395355,-0.0002297747996635735,2.5516219466226175e-05,-2039.92431640625,4672.6630859375,1745.6390380859375,1926.514892578125,0.0,0.0,0.0,0.0,2.499999936844688e-05,0.02500000037252903,1000.0955810546875,100000000.0,0.30000001192092896
356,1,0.2750176787376404,0.29249998927116394,-0.00024317484349012375,1.897151923913043e-05,-3116.59716796875,2555.386962890625,1816.056640625,-356.5357971191406,0.0,0.0,0.0,0.0,2.499999936844688e-05,0.02500000037252903,1000.0744018554688,100000000.0,0.30000001192092896
357,1,0.2750178575515747,0.29750001430511475,-0.0002473489730618894,1.6286967365886085e-05,-1005.641357421875,2460.419189453125,1598.2283935546875,1215.750732421875,0.0,0.0,0.0,0.0,2.499999936844688e-05,0.02500000037252903,1000.0643920898438,100000000.0,0.30000001192092896
358,1,0.28001731634140015,0.29249998927116394,-0.00023390307615045458,2.272718666063156e-05,-2507.36083984375,3100.31396484375,1455.342529296875,-310.366943359375,0.0,0.0,0.0,0.0,2.499999936844688e-05,0.02500000037252903,1000.0791625976562,100000000.0,0.30000001192092896
359,1,0.28001752495765686,0.29750001430511475,-0.00023887377756182104,1.9308834453113377e-05,-347.72943115234375,3005.486328125,1174.2738037109375,1296.9945068359375,0.0,0.0,0.0,0.0,2.499999936844688e-05,0.02500000037252903,1000.0636596679688,100000000.0,0.30000001192092896
360,1,0.2750180959701538,0.30250000953674316,-0.0002518559340387583,1.3186870091885794e-05,-1281.52587890625,1162.08642578125,1495.9698486328125,233.60108947753906,0.0,0.0,0.0,0.0,2.499999936844688e-05,0.02500000037252903,1000.0577392578125,100000000.0,0.30000001192092896
361,1,0.2800176739692688,0.30250000953674316,-0.00024372449843212962,1.5487677956116386e-05,1124.8114013671875,1313.9920654296875,834.1069946289062,1866.7733154296875,0.0,0.0,0.0,0.0,2.499999936844688e-05,0.02500000037252903,1000.0487670898438,100000000.0,0.30000001192092896
362,1,0.2850175201892853,0.20250000059604645,-0.00021390861365944147,-3.038819158973638e-06,2425.64306640625,-2306.529541015625,99.47116088867188,2338.369384765625,0.0,0.0,0.0,0.0,2.499999936844688e-05,0.02500000037252903,1000.050048828125,100000000.0,0.30000001192092896
363,1,0.285017192363739,0.20749999582767487,-0.00020737384329549968,-9.927738574333489e-06,2598.592529296875,-2291.3447265625,-32.09086990356445,2467.467041015625,0.0,0.0,0.0,0.0,2.499999936844688e-05,0.02500000037252903,1000.066162109375,100000000.0,0.30000001192092896
364,1,0.29001694917678833,0.20749999582767487,-0.00020365368982311338,-5.8686946431407705e-06,4299.43212890625,-2332.387939453125,732.7119750976562,3475.457763671875,0.0,0.0,0.0,0.0,2.499999936844688e-05,0.02500000037252903,1000.0687255859375,100000000.0,0.30000001192092896
365,1,0.2850170135498047,0.21250000596046448,-0.00020121228590141982,-1.91997842193814e-05,2896.89892578125,-4407.38525390625,-300.8379821777344,2833.351806640625,0.0,0.0,0.0,0.0,2.499999936844688e-05,0.02500000037252903,1000.0819702148438,100000000.0,0.30000001192092896
366,1,0.28501665592193604,0.2175000011920929,-0.0001954243052750826,-3.0854866054141894e-05,2836.04345703125,-4346.72705078125,-706.7930908203125,2788.243408203125,0.0,0.0,0.0,0.0,2.499999936844688e-05,0.02500000037252903,1000.0987548828125,100000000.0,0.30000001192092896
367,1,0.2900165319442749,0.21250000596046448,-0.00019575931946747005,-1.6721080100978725e-05,4065.495361328125,-4306.52734375,423.1656494140625,2988.497802734375,0.0,0.0,0.0,0.0,2.499999936844688e-05,0.02500000037252903,1000.08740234375,100000000.0,0.30000001192092896
368,1,0.2900162935256958,0.2175000011920929,-0.0001880192430689931,-3.1434243283001706e-05,5788.62255859375,-4245.91064453125,1.828210473060608,4271.95947265625,0.0,0.0,0.0,0.0,2.499999936844688e-05,0.02500000037252903,1000.102783203125,100000000.0,0.30000001192092896
369,1,0.2850164771080017,0.2224999964237213,-0.00019297804101370275,-4.229537444189191e-05,3039.74853515625,-8089.73486328125,-1221.6690673828125,4665.884765625,0.0,0.0,0.0,0.0,2.499999936844688e-05,0.02500000037252903,1000.1168212890625,100000000.0,0.30000001192092896
370,1,0.28501617908477783,0.22750000655651093,-0.0001938732311828062,-5.35209801455494e-05,-2259.747314453125,-8169.52392578125,-1845.5106201171875,720.00390625,0.0,0.0,0.0,0.0,2.499999936844688e-05,0.02500000037252903,1000.1322631835938,100000000.0,0.30000001192092896
371,1,0.2900160551071167,0.2224999964237213,-0.00018384472059551626,-4.68240978079848e-05,6244.564453125,-9409.6787109375,-678.4539794921875,5825.390625,0.0,0.0,0.0,0.0,2.499999936844688e-05,0.02500000037252903,1000.1190185546875,100000000.0,0.30000001192092896
372,1,0.2900158762931824,0.22750000655651093,-0.0001832351554185152,-6.28904890618287e-05,1375.495849609375,-9489.5,-1617.6513671875,2199.6591796875,0.0,0.0,0.0,0.0,2.499999936844688e-05,0.02500000037252903,1000.1398315429688,100000000.0,0.30000001192092896
373,1,0.2850160598754883,0.23250000178813934,-0.00019859039457514882,-5.812208110000938e-05,-1097.6312255859375,-10172.578125,-2129.0146484375,6880.3427734375,0.0,0.0,0.0,0.0,2.499999936844688e-05,0.02500000037252903,1000.1517944335938,100000000.0,0.30000001192092896
374,1,0.28501594066619873,0.23749999701976776,-0.00020713030244223773,-5.609889194602147e-05,-11181.869140625,-10157.1005859375,-2072.239501953125,-630.1752319335938,0.0,0.0,0.0,0.0,2.499999936844688e-05,0.02500000037252903,1000.1712646484375,100000000.0,0.30000001192092896
375,1,0.29001584649086,0.23250000178813934,-0.00018814740178640932,-6.998049502726644e-05,1903.0435791015625,-13135.4462890625,-2098.709716796875,9180.0,0.0,0.0,0.0,0.0,2.499999936844688e-05,0.02500000037252903,1000.16455078125,100000000.0,0.30000001192092896
376,1,0.29001563787460327,0.23749999701976776,-0.00019858224550262094,-6.809375918237492e-05,-14197.11328125,-13119.8544921875,-2121.729736328125,-2808.667724609375,0.0,0.0,0.0,0.0,2.499999936844688e-05,0.02500000037252903,1000.1959228515625,100000000.0,0.30000001192092896
377,1,0.28501588106155396,0.24250000715255737,-0.00021380212274380028,-4.645185617846437e-05,-9975.1884765625,-6500.80517578125,-1581.0234375,5773.3271484375,0.0,0.0,0.0,0.0,2.499999936844688e-05,0.02500000037252903,1000.18701171875,100000000.0,0.30000001192092896
378,1,0.28501585125923157,0.2475000023841858,-0.00021860589913558215,-2.9180995625210926e-05,-15866.5,-6440.14990234375,-655.4716796875,1383.4853515625,0.0,0.0,0.0,0.0,2.499999936844688e-05,0.02500000037252903,1000.1986083984375,100000000.0,0.30000001192092896
379,1,0.29001516103744507,0.24250000715255737,-0.00020597910042852163,-5.537202378036454e-05,-13971.9755859375,-8095.494140625,-1584.9906005859375,4483.310546875,0.0,0.0,0.0,0.0,2.499999936844688e-05,0.02500000037252903,1000.218017578125,100000000.0,0.30000001192092896
380,1,0.29001492261886597,0.2475000023841858,-0.00021033767552580684,-3.1817609851714224e-05,-21256.48046875,-8034.7890625,-488.6095275878906,-941.4727783203125,0.0,0.0,0.0,0.0,2.499999936844688e-05,0.02500000037252903,1000.2371215820312,100000000.0,0.30000001192092896
381,1,0.28501585125923157,0.2524999976158142,-0.0002203680924139917,-1.08430722320918e-05,-16027.255859375,-72.0268783569336,317.35595703125,2499.05029296875,0.0,0.0,0.0,0.0,2.499999936844688e-05,0.02500000037252903,1000.2041625976562,100000000.0,0.30000001192092896
382,1,0.28501585125923157,0.2574999928474426,-0.00021908806229475886,8.56200040288968e-06,-14573.5771484375,-63.84524154663086,1337.419189453125,3582.05029296875,0.0,0.0,0.0,0.0,2.499999936844688e-05,0.02500000037252903,1000.2020263671875,100000000.0,0.30000001192092896
383,1,0.2900146543979645,0.2524999976158142,-0.00021110681700520217,-7.4022950684593525e-06,-21457.375,367.14459228515625,553.8079223632812,220.05813598632812,0.0,0.0,0.0,0.0,2.499999936844688e-05,0.02500000037252903,1000.2438354492188,100000000.0,0.30000001192092896
384,1,0.29001474380493164,0.2574999928474426,-0.00020828511333093047,1.7874926925287582e-05,-18946.630859375,375.3662414550781,1542.3214111328125,2091.363037109375,0.0,0.0,0.0,0.0,2.499999936844688e-05,0.02500000037252903,1000.2417602539062,100000000.0,0.30000001192092896
385,1,0.28501585125923157,0.26249998807907104,-0.00021631282288581133,2.2913352950126864e-05,-16129.73046875,5068.5341796875,2045.5106201171875,-946.8364868164062,0.0,0.0,0.0,0.0,2.499999936844688e-05,0.02500000037252903,1000.1941528320312,100000000.0,0.30000001192092896
386,1,0.28501588106155396,0.26750001311302185,-0.00021204225777182728,3.221099905204028e-05,-9437.0791015625,4973.7822265625,2441.718017578125,4036.779296875,0.0,0.0,0.0,0.0,2.499999936844688e-05,0.02500000037252903,1000.178466796875,100000000.0,0.30000001192092896
387,1,0.2900148630142212,0.26249998807907104,-0.00020348068210296333,3.5339333408046514e-05,-19725.716796875,7043.74658203125,2206.701171875,-2956.28955078125,0.0,0.0,0.0,0.0,2.499999936844688e-05,0.02500000037252903,1000.2296752929688,100000000.0,0.30000001192092896
388,1,0.290015310049057,0.26750001311302185,-0.00019669235916808248,4.49915933131706e-05,-8855.1611328125,6949.1572265625,2546.957275390625,5137.0615234375,0.0,0.0,0.0,0.0,2.499999936844688e-05,0.02500000037252903,1000.2069091796875,100000000.0,0.30000001192092896
389,1,0.2850159704685211,0.27250000834465027,-0.00021011354692745954,3.660830407170579e-05,-11196.8818359375,6587.85498046875,2508.1806640625,-2169.095947265625,0.0,0.0,0.0,0.0,2.499999936844688e-05,0.02500000037252903,1000.1614379882812,100000000.0,0.30000001192092896
390,1,0.28501614928245544,0.2775000035762787,-0.00021052779629826546,3.6105557228438556e-05,-5051.80078125,6708.64892578125,2245.036865234375,2408.4189453125,0.0,0.0,0.0,0.0,2.499999936844688e-05,0.02500000037252903,1000.142333984375,100000000.0,0.30000001192092896
391,1,0.2900157868862152,0.27250000834465027,-0.0001938849309226498,4.820200410904363e-05,-10347.990234375,8186.18994140625,2481.687255859375,-2086.08056640625,0.0,0.0,0.0,0.0,2.499999936844688e-05,0.02500000037252903,1000.1814575195312,100000000.0,0.30000001192092896
392,1,0.29001584649086,0.2775000035762787,-0.0001950617297552526,4.496957262745127e-05,-3776.8876953125,8307.001953125,2010.8309326171875,2807.025634765625,0.0,0.0,0.0,0.0,2.499999936844688e-05,0.02500000037252903,1000.1533813476562,100000000.0,0.30000001192092896
393,1,0.2850162982940674,0.2824999988079071,-0.0002131301152985543,3.374857624294236e-05,-6041.22412109375,5496.89697265625,1902.9356689453125,-1735.67822265625,0.0,0.0,0.0,0.0,2.499999936844688e-05,0.02500000037252903,1000.1212768554688,100000000.0,0.30000001192092896
394,1,0.2850167453289032,0.2874999940395355,-0.00021791842300444841,2.9537462978623807e-05,-2773.380126953125,5505.08544921875,1481.9005126953125,695.7030639648438,0.0,0.0,0.0,0.0,2.499999936844688e-05,0.02500000037252903,1000.1041259765625,100000000.0,0.30000001192092896
395,1,0.2900160253047943,0.2824999988079071,-0.0001988894073292613,4.000426270067692e-05,-5134.90625,6307.5029296875,1525.118896484375,-1831.57861328125,0.0,0.0,0.0,0.0,2.499999936844688e-05,0.02500000037252903,1000.1309204101562,100000000.0,0.30000001192092896
396,1,0.29001620411872864,0.2874999940395355,-0.0002053671923931688,3.330550680402666e-05,-2297.56201171875,6315.6982421875,1024.46142578125,283.3866882324219,0.0,0.0,0.0,0.0,2.499999936844688e-05,0.02500000037252903,1000.1113891601562,100000000.0,0.30000001192092896
397,1,0.2850169539451599,0.29249998927116394,-0.00022364310279954225,2.5087376343435608e-05,-2990.38232421875,3665.94287109375,1099.95947265625,-1241.414794921875,0.0,0.0,0.0,0.0,2.499999936844688e-05,0.02500000037252903,1000.082275390625,100000000.0,0.30000001192092896
398,1,0.2850172221660614,0.29750001430511475,-0.0002303033834323287,2.0398680135258473e-05,-742.5278930664062,3571.2060546875,757.1500244140625,431.9703063964844,0.0,0.0,0.0,0.0,2.499999936844688e-05,0.02500000037252903,1000.0638427734375,100000000.0,0.30000001192092896
399,1,0.29001665115356445,0.29249998927116394,-0.00021288501739036292,2.672474511200562e-05,-1157.189697265625,4436.54296875,437.0826110839844,-620.4840698242188,0.0,0.0,0.0,0.0,2.499999936844688e-05,0.02500000037252903,1000.08740234375,100000000.0,0.30000001192092896
400,1,0.29501622915267944,0.21250000596046448,-0.00019585892732720822,-9.056545422936324e-06,5048.13427734375,-3533.37451171875,1136.0294189453125,2967.10498046875,0.0,0.0,0.0,0.0,2.499999936844688e-05,0.02500000037252903,1000.092529296875,100000000.0,0.30000001192092896
401,1,0.2950158715248108,0.2175000011920929,-0.00018766109133139253,-2.91952437692089e-05,8502.0234375,-3472.8056640625,700.7570190429688,5538.84228515625,0.0,0.0,0.0,0.0,2.499999936844688e-05,0.02500000037252903,1000.1064453125,100000000.0,0.30000001192092896
402,1,0.30001571774482727,0.2175000011920929,-0.00019670964684337378,-2.4870658307918347e-05,31460.814453125,-2492.700439453125,2230.000732421875,21868.4609375,0.0,0.0,0.0,0.0,2.499999936844688e-05,0.02500000037252903,1000.021728515625,100000000.0,0.30000001192092896
403,1,0.295015811920166,0.2224999964237213,-0.0001810512476367876,-5.163095920579508e-05,7861.46044921875,-10572.7802734375,-141.95553588867188,4983.75830078125,0.0,0.0,0.0,0.0,2.499999936844688e-05,0.02500000037252903,1000.1227416992188,100000000.0,0.30000001192092896
404,1,0.29501578211784363,0.22750000655651093,-0.00017602879961486906,-7.636412919964641e-05,3391.63720703125,-10652.6083984375,-1392.10107421875,1656.5225830078125,0.0,0.0,0.0,0.0,2.499999936844688e-05,0.02500000037252903,1000.14501953125,100000000.0,0.30000001192092896
405,1,0.3000156283378601,0.2224999964237213,-0.00018485925102140754,-5.666428478434682e-05,28613.68359375,-11731.1982421875,1034.1031494140625,17953.296875,0.0,0.0,0.0,0.0,2.499999936844688e-05,0.02500000037252903,1000.0256958007812,100000000.0,0.30000001192092896
406,1,0.300014853477478,0.22750000655651093,-0.0001718085986794904,-9.429565398022532e-05,23908.126953125,-11811.0048828125,-906.3428344726562,14451.494140625,0.0,0.0,0.0,0.0,2.499999936844688e-05,0.02500000037252903,1000.0559692382812,100000000.0,0.30000001192092896
407,1,0.29501500725746155,0.23250000178813934,-0.0001804494095267728,-8.818104834062979e-05,4322.291015625,-18383.4375,-2068.118896484375,10837.017578125,0.0,0.0,0.0,0.0,2.499999936844688e-05,0.02500000037252903,1000.1784057617188,100000000.0,0.30000001192092896
408,1,0.2950141131877899,0.23749999701976776,-0.0001943112729350105,-8.708429959369823e-05,-17740.134765625,-18367.26171875,-2170.0478515625,-5590.82958984375,0.0,0.0,0.0,0.0,2.499999936844688e-05,0.02500000037252903,1000.2189331054688,100000000.0,0.30000001192092896
409,1,0.30001360177993774,0.23250000178813934,-0.00016984650574158877,-0.00011207815259695053,24350.52734375,-24642.7265625,-1447.9056396484375,25995.021484375,0.0,0.0,0.0,0.0,2.499999936844688e-05,0.02500000037252903,1000.1193237304688,100000000.0,0.30000001192092896
410,1,0.30001193284988403,0.23749999701976776,-0.00017898408987093717,-0.00011002151586581022,-7558.419921875,-24625.41015625,-591.6432495117188,2229.50830078125,0.0,0.0,0.0,0.0,2.499999936844688e-05,0.02500000037252903,1000.2173461914062,100000000.0,0.30000001192092896
411,1,0.2950132489204407,0.24250000715255737,-0.00020227200002409518,-6.909718649694696e-05,-17377.990234375,-10220.486328125,-1588.5946044921875,4081.335205078125,0.0,0.0,0.0,0.0,2.499999936844688e-05,0.02500000037252903,1000.2488403320312,100000000.0,0.30000001192092896
412,1,0.29501256346702576,0.2475000023841858,-0.000204333002329804,-3.4223139664391056e-05,-26045.73046875,-10159.66796875,-323.6956787109375,-2372.476806640625,0.0,0.0,0.0,0.0,2.499999936844688e-05,0.02500000037252903,1000.2684936523438,100000000.0,0.30000001192092896
413,1,0.3000108599662781,0.24250000715255737,-0.00018271798035129905,-8.48360505187884e-05,-7142.81787109375,-12151.9208984375,145.13975524902344,13625.8681640625,0.0,0.0,0.0,0.0,2.499999936844688e-05,0.02500000037252903,1000.2510375976562,100000000.0,0.30000001192092896
414,1,0.3000100255012512,0.2475000023841858,-0.0001810397079680115,-3.652098894235678e-05,-11467.8017578125,-12091.2744140625,763.5576782226562,10405.7568359375,0.0,0.0,0.0,0.0,2.499999936844688e-05,0.02500000037252903,1000.2639770507812,100000000.0,0.30000001192092896
415,1,0.29501232504844666,0.2524999976158142,-0.0002030429313890636,3.6847407614004624e-07,-27158.986328125,1209.0362548828125,787.3516235351562,-2343.60107421875,0.0,0.0,0.0,0.0,2.499999936844688e-05,0.02500000037252903,1000.2774047851562,100000000.0,0.30000001192092896
416,1,0.2950124740600586,0.2574999928474426,-0.00019840060849674046,3.4680557291721925e-05,-23602.25,1217.2471923828125,1744.560791015625,306.6634521484375,0.0,0.0,0.0,0.0,2.499999936844688e-05,0.02500000037252903,1000.2750244140625,100000000.0,0.30000001192092896
417,1,0.3000098168849945,0.2524999976158142,-0.00017747543461155146,1.0427397683088202e-05,-12039.3232421875,2018.20263671875,1261.9500732421875,10334.54296875,0.0,0.0,0.0,0.0,2.499999936844688e-05,0.02500000037252903,1000.2691040039062,100000000.0,0.30000001192092896
418,1,0.30000996589660645,0.2574999928474426,-0.00017202721210196614,5.601381417363882e-05,-10032.1630859375,2026.4117431640625,1639.98779296875,11830.6806640625,0.0,0.0,0.0,0.0,2.499999936844688e-05,0.02500000037252903,1000.2667846679688,100000000.0,0.30000001192092896
419,1,0.2950129508972168,0.26249998807907104,-0.0001896996545838192,5.609541040030308e-05,-23724.54296875,10608.44140625,2365.610595703125,-5416.35302734375,0.0,0.0,0.0,0.0,2.499999936844688e-05,0.02500000037252903,1000.261474609375,100000000.0,0.30000001192092896
420,1,0.29501357674598694,0.26750001311302185,-0.00017693924019113183,6.46114131086506e-05,-8716.4189453125,10513.9990234375,2650.540771484375,5761.0888671875,0.0,0.0,0.0,0.0,2.499999936844688e-05,0.02500000037252903,1000.2317504882812,100000000.0,0.30000001192092896
421,1,0.30001044273376465,0.26249998807907104,-0.00016280467389151454,8.30238641356118e-05,-13479.5234375,14302.7919921875,2019.748779296875,2754.443359375,0.0,0.0,0.0,0.0,2.499999936844688e-05,0.02500000037252903,1000.2572021484375,100000000.0,0.30000001192092896
422,1,0.30001160502433777,0.26750001311302185,-0.00014980889682192355,9.146079537458718e-05,-628.9060668945312,14208.6630859375,2400.83203125,12320.4990234375,0.0,0.0,0.0,0.0,2.499999936844688e-05,0.02500000037252903,1000.23681640625,100000000.0,0.30000001192092896
423,1,0.295014351606369,0.27250000834465027,-0.0001723672030493617,6.476838461821899e-05,-10625.7353515625,9935.2666015625,2455.106689453125,-3383.264892578125,0.0,0.0,0.0,0.0,2.499999936844688e-05,0.02500000037252903,1000.2014770507812,100000000.0,0.30000001192092896
424,1,0.2950151860713959,0.2775000035762787,-0.0001759866572683677,5.6565444538136944e-05,-3638.5888671875,10056.2255859375,1779.2391357421875,1822.0465087890625,0.0,0.0,0.0,0.0,2.499999936844688e-05,0.02500000037252903,1000.1675415039062,100000000.0,0.30000001192092896
425,1,0.3000126779079437,0.27250000834465027,-0.0001474917371524498,8.700732723809779e-05,-7009.30029296875,11730.6962890625,1855.18896484375,-2211.555908203125,0.0,0.0,0.0,0.0,2.499999936844688e-05,0.02500000037252903,1000.209228515625,100000000.0,0.30000001192092896
426,1,0.3000139892101288,0.2775000035762787,-0.00015584904758725315,6.965789361856878e-05,131.7603759765625,11851.330078125,381.8865661621094,3100.000244140625,0.0,0.0,0.0,0.0,2.499999936844688e-05,0.02500000037252903,1000.1725463867188,100000000.0,0.30000001192092896
427,1,0.295015811920166,0.2824999988079071,-0.00018203009676653892,4.704527964349836e-05,-4796.78369140625,6957.47314453125,1152.1536865234375,-2554.57275390625,0.0,0.0,0.0,0.0,2.499999936844688e-05,0.02500000037252903,1000.1398315429688,100000000.0,0.30000001192092896
428,1,0.29501593112945557,0.2874999940395355,-0.00019049691036343575,3.620816278271377e-05,-2351.61962890625,6965.6123046875,573.68212890625,-733.9146728515625,0.0,0.0,0.0,0.0,2.499999936844688e-05,0.02500000037252903,1000.1170043945312,100000000.0,0.30000001192092896
429,1,0.3000149130821228,0.2824999988079071,-0.00016532553127035499,5.3124338592169806e-05,25.5355224609375,7603.380859375,-693.6369018554688,-16.043428421020508,0.0,0.0,0.0,0.0,2.499999936844688e-05,0.02500000037252903,1000.1256103515625,100000000.0,0.30000001192092896
430,1,0.305014967918396,0.2224999964237213,-0.0002215991698903963,-6.276815838646144e-05,46974.25390625,-12973.6220703125,2197.50830078125,27347.669921875,0.0,0.0,0.0,0.0,2.499999936844688e-05,0.02500000037252903,999.8876953125,100000000.0,0.30000001192092896
431,1,0.30501413345336914,0.22750000655651093,-0.0001819372846512124,-0.00013466650852933526,42065.125,-13053.3935546875,-425.9447937011719,23693.361328125,0.0,0.0,0.0,0.0,2.499999936844688e-05,0.02500000037252903,999.9281005859375,100000000.0,0.30000001192092896
432,1,0.30501192808151245,0.23250000178813934,-0.00013932814181316644,-0.0001635892258491367,49266.4921875,-34656.6484375,-833.7901611328125,47286.51171875,0.0,0.0,0.0,0.0,2.499999936844688e-05,0.02500000037252903,1000.0366821289062,100000000.0,0.30000001192092896
433,1,0.3050096929073334,0.23749999701976776,-9.380627307109535e-05,-0.00014957276289351285,7610.60595703125,-34637.55078125,972.9263305664062,16268.595703125,0.0,0.0,0.0,0.0,2.499999936844688e-05,0.02500000037252903,1000.1978759765625,100000000.0,0.30000001192092896
434,1,0.31000831723213196,0.23749999701976776,0.00014457677025347948,-0.000189791273442097,-357138.9375,-45453.96484375,25876.923828125,-260899.734375,0.0,0.0,0.0,0.0,2.499999936844688e-05,0.02500000037252903,1001.6256103515625,100000000.0,0.30000001192092896
435,1,0.3050084412097931,0.24250000715255737,-6.493607361335307e-05,-0.00010784718324430287,1138.3023681640625,-12429.2763671875,1864.008056640625,20033.564453125,0.0,0.0,0.0,0.0,2.499999936844688e-05,0.02500000037252903,1000.2511596679688,100000000.0,0.30000001192092896
436,1,0.3050077557563782,0.2475000023841858,-5.268834866001271e-05,-3.8405116356443614e-05,1134.205078125,-12368.728515625,1841.7227783203125,20028.98046875,0.0,0.0,0.0,0.0,2.499999936844688e-05,0.02500000037252903,1000.2543334960938,100000000.0,0.30000001192092896
437,1,0.31000733375549316,0.24250000715255737,0.00020201252482365817,-0.0001240023848367855,-361074.9375,-12447.900390625,13268.7255859375,-252878.171875,0.0,0.0,0.0,0.0,2.499999936844688e-05,0.02500000037252903,1001.6427001953125,100000000.0,0.30000001192092896
438,1,0.31000667810440063,0.2475000023841858,0.00022439721215050668,-3.697396459756419e-05,-361333.5,-12387.4189453125,6107.76611328125,-253054.546875,0.0,0.0,0.0,0.0,2.499999936844688e-05,0.02500000037252903,1001.6464233398438,100000000.0,0.30000001192092896
439,1,0.3050074279308319,0.2524999976158142,-4.660096237785183e-05,2.9855029424652457e-05,1401.6815185546875,2234.99951171875,1732.368896484375,20243.1953125,0.0,0.0,0.0,0.0,2.499999936844688e-05,0.02500000037252903,1000.2611083984375,100000000.0,0.30000001192092896
440,1,0.3050074875354767,0.2574999928474426,-4.667052417062223e-05,9.693826723378152e-05,1863.3162841796875,2243.2041015625,1535.884765625,20589.416015625,0.0,0.0,0.0,0.0,2.499999936844688e-05,0.02500000037252903,1000.2626342773438,100000000.0,0.30000001192092896
441,1,0.31000640988349915,0.2524999976158142,0.00023239567235577852,4.9839851271826774e-05,-361062.21875,2382.105224609375,-847.0028686523438,-252881.796875,0.0,0.0,0.0,0.0,2.499999936844688e-05,0.02500000037252903,1001.648681640625,100000000.0,0.30000001192092896
442,1,0.3100065290927887,0.2574999928474426,0.0002260081673739478,0.0001364398776786402,-360143.09375,2390.31494140625,-7598.59375,-252217.328125,0.0,0.0,0.0,0.0,2.499999936844688e-05,0.02500000037252903,1001.6470336914062,100000000.0,0.30000001192092896
443,1,0.30500808358192444,0.26249998807907104,-5.885217251488939e-05,0.000138509290991351,-1954.713623046875,17171.751953125,1676.2965087890625,12125.7041015625,0.0,0.0,0.0,0.0,2.499999936844688e-05,0.02500000037252903,1000.2531127929688,100000000.0,0.30000001192092896
444,1,0.3050090968608856,0.26750001311302185,-8.316238381667063e-05,0.00015456884284503758,8747.1416015625,17077.41796875,2153.37939453125,20092.62890625,0.0,0.0,0.0,0.0,2.499999936844688e-05,0.02500000037252903,1000.230712890625,100000000.0,0.30000001192092896
445,1,0.31000691652297974,0.26249998807907104,0.00019411354151088744,0.00020145555026829243,-352225.6875,22273.296875,-20083.533203125,-256029.09375,0.0,0.0,0.0,0.0,2.499999936844688e-05,0.02500000037252903,1001.627197265625,100000000.0,0.30000001192092896
446,1,0.30501049757003784,0.27250000834465027,-0.00010785400081658736,0.00013806128117721528,-5981.84375,13589.1201171875,1259.5433349609375,-5056.376953125,0.0,0.0,0.0,0.0,2.499999936844688e-05,0.02500000037252903,1000.1948852539062,100000000.0,0.30000001192092896
447,1,0.30501246452331543,0.2775000035762787,-0.00013292378571350127,8.896693179849535e-05,1265.6663818359375,13709.6298828125,-1000.8334350585938,341.1867370605469,0.0,0.0,0.0,0.0,2.499999936844688e-05,0.02500000037252903,1000.160400390625,100000000.0,0.30000001192092896
448,2,0.33677101135253906,0.2224999964237213,-0.00776441628113389,-0.0005160041619092226,-25978.9921875,6420.64013671875,17794.408203125,-44056.84375,0.0,0.0,0.0,0.0,2.499999936844688e-05,0.02500000037252903,1000.0,100000000.0,0.30000001192092896
449,2,0.3367719352245331,0.22750000655651093,-0.007850941270589828,-0.0006253986502997577,6524.2646484375,6773.22705078125,36453.06640625,-19840.66015625,0.0,0.0,0.0,0.0,2.499999936844688e-05,0.02500000037252903,1000.0,100000000.0,0.30000001192092896
450,2,0.3317772448062897,0.23749999701976776,-0.008857890963554382,-0.0007847390370443463,-1541291.5,-12012.998046875,4792.56201171875,-1099733.5,0.0,0.0,0.0,0.0,2.499999936844688e-05,0.02500000037252903,1006.8242797851562,100000000.0,0.30000001192092896
451,2,0.3367730677127838,0.23250000178813934,-0.007944801822304726,-0.0006163602811284363,165381.46875,12293.88671875,40316.35546875,154512.921875,0.0,0.0,0.0,0.0,2.499999936844688e-05,0.02500000037252903,1000.0,100000000.0,0.30000001192092896
452,2,0.3367743492126465,0.23749999701976776,-0.00804593414068222,-0.0004889912088401616,263178.625,12232.6220703125,29389.107421875,227338.671875,0.0,0.0,0.0,0.0,2.499999936844688e-05,0.02500000037252903,1000.0,100000000.0,0.30000001192092896
453,2,0.3317781090736389,0.24250000715255737,-0.009069576859474182,-0.0004936224431730807,-1457489.25,804.3121948242188,8395.6220703125,-1006241.8125,0.0,0.0,0.0,0.0,2.499999936844688e-05,0.02500000037252903,1005.800048828125,100000000.0,0.30000001192092896
454,2,0.3317784070968628,0.2475000023841858,-0.009115987457334995,-0.00015300713130272925,-1451176.0,537.4415893554688,2839.771728515625,-1001384.8125,0.0,0.0,0.0,0.0,2.499999936844688e-05,0.02500000037252903,1005.7881469726562,100000000.0,0.30000001192092896
455,2,0.33677518367767334,0.24250000715255737,-0.00810904148966074,-0.0003146494273096323,365347.125,4283.3095703125,17947.828125,331026.15625,0.0,0.0,0.0,0.0,2.499999936844688e-05,0.02500000037252903,1000.0,100000000.0,0.30000001192092896
456,2,0.3367754817008972,0.2475000023841858,-0.00813424400985241,-9.330888860858977e-05,379568.84375,4015.605712890625,5990.88671875,341606.25,0.0,0.0,0.0,0.0,2.499999936844688e-05,0.02500000037252903,1000.0,100000000.0,0.30000001192092896
457,2,0.3317784070968628,0.2524999976158142,-0.009115735068917274,0.00018766468565445393,-1450762.625,-1148.5,-2750.015869140625,-1001021.1875,0.0,0.0,0.0,0.0,2.499999936844688e-05,0.02500000037252903,1005.797119140625,100000000.0,0.30000001192092896
458,2,0.3317781090736389,0.2574999928474426,-0.009068791754543781,0.0005284130456857383,-1456541.375,-1184.306396484375,-8369.6162109375,-1005474.4375,0.0,0.0,0.0,0.0,2.499999936844688e-05,0.02500000037252903,1005.8138427734375,100000000.0,0.30000001192092896
459,2,0.3367754817008972,0.2524999976158142,-0.008134189061820507,0.00012802692072000355,379565.34375,-4634.19091796875,-5976.27978515625,341618.90625,0.0,0.0,0.0,0.0,2.499999936844688e-05,0.02500000037252903,1000.0,100000000.0,0.30000001192092896
460,2,0.33677518367767334,0.2574999928474426,-0.008108850568532944,0.0003493790572974831,365289.59375,-4669.9931640625,-17954.814453125,330998.84375,0.0,0.0,0.0,0.0,2.499999936844688e-05,0.02500000037252903,1000.0,100000000.0,0.30000001192092896
461,2,0.33177727460861206,0.26249998807907104,-0.008856819011271,0.0008195643313229084,-1539454.625,12465.337890625,-4854.22021484375,-1098343.625,0.0,0.0,0.0,0.0,2.499999936844688e-05,0.02500000037252903,1006.840576171875,100000000.0,0.30000001192092896
462,2,0.3367743492126465,0.26249998807907104,-0.008045596070587635,0.0005236616707406938,263110.09375,-11672.89453125,-29417.26953125,227254.734375,0.0,0.0,0.0,0.0,2.499999936844688e-05,0.02500000037252903,1000.0,100000000.0,0.30000001192092896
463,2,0.3367730379104614,0.26750001311302185,-0.007944307290017605,0.0006509030354209244,165526.75,-11249.921875,-40365.8984375,154585.953125,0.0,0.0,0.0,0.0,2.499999936844688e-05,0.02500000037252903,1000.0,100000000.0,0.30000001192092896
464,2,0.3367719352245331,0.27250000834465027,-0.00785037875175476,0.0006597370957024395,6509.830078125,-6161.1787109375,-36500.50390625,-19947.3359375,0.0,0.0,0.0,0.0,2.499999936844688e-05,0.02500000037252903,1000.0,100000000.0,0.30000001192092896
465,2,0.33677101135253906,0.2775000035762787,-0.007763945031911135,0.00055007787887007,-26322.666015625,-6683.78369140625,-17818.16796875,-44405.69921875,0.0,0.0,0.0,0.0,2.499999936844688e-05,0.02500000037252903,1000.0,100000000.0,0.30000001192092896
466,2,0.3417697250843048,0.2175000011920929,-0.007657613139599562,-0.0003802931751124561,-20469.9765625,6548.81787109375,7709.04541015625,-21503.216796875,0.0,0.0,0.0,0.0,2.499999936844688e-05,0.02500000037252903,1000.0,100000000.0,0.30000001192092896
467,2,0.34676864743232727,0.21250000596046448,-0.0075888135470449924,-0.0003188431728631258,-18705.58984375,6610.92333984375,6235.2373046875,-17127.044921875,0.0,0.0,0.0,0.0,2.499999936844688e-05,0.02500000037252903,1000.0,100000000.0,0.30000001192092896
468,2,0.3467691242694855,0.2175000011920929,-0.00760791078209877,-0.0003223770472686738,-19145.615234375,6344.0615234375,7964.46240234375,-17455.6640625,0.0,0.0,0.0,0.0,2.499999936844688e-05,0.02500000037252903,1000.0,100000000.0,0.30000001192092896
469,2,0.3417704105377197,0.2224999964237213,-0.007683218456804752,-0.0003823886509053409,-16755.9375,11206.1298828125,11125.12890625,-15086.439453125,0.0,0.0,0.0,0.0,2.499999936844688e-05,0.02500000037252903,1000.0,100000000.0,0.30000001192092896
470,2,0.3417712450027466,0.22750000655651093,-0.00771327642723918,-0.000370391906471923,-16525.98828125,11557.44140625,15794.791015625,-14915.89453125,0.0,0.0,0.0,0.0,2.499999936844688e-05,0.02500000037252903,1000.0,100000000.0,0.30000001192092896
471,2,0.3467697203159332,0.2224999964237213,-0.0076273223385214806,-0.00031503316131420434,-13743.1611328125,9951.1669921875,9995.0390625,-8485.71875,0.0,0.0,0.0,0.0,2.499999936844688e-05,0.02500000037252903,1000.0,100000000.0,0.30000001192092896
472,2,0.34677037596702576,0.22750000655651093,-0.007647024001926184,-0.0002968120970763266,-19038.9765625,10302.4248046875,12327.1015625,-12428.7607421875,0.0,0.0,0.0,0.0,2.499999936844688e-05,0.02500000037252903,1000.0,100000000.0,0.30000001192092896
473,2,0.341772198677063,0.23250000178813934,-0.00769566697999835,-0.0003355848020873964,11193.2548828125,24835.0859375,16907.029296875,26978.29296875,0.0,0.0,0.0,0.0,2.499999936844688e-05,0.02500000037252903,1000.0,100000000.0,0.30000001192092896
474,2,0.34177321195602417,0.23749999701976776,-0.007630413863807917,-0.0002779834612738341,-4672.77685546875,24766.931640625,14469.4521484375,15162.2470703125,0.0,0.0,0.0,0.0,2.499999936844688e-05,0.02500000037252903,1000.0,100000000.0,0.30000001192092896
475,2,0.34677112102508545,0.23250000178813934,-0.007641852833330631,-0.00026107567828148603,-14120.646484375,16292.0947265625,12983.4443359375,6174.72607421875,0.0,0.0,0.0,0.0,2.499999936844688e-05,0.02500000037252903,1000.0,100000000.0,0.30000001192092896
476,2,0.34677186608314514,0.23749999701976776,-0.007611844222992659,-0.00020782765932381153,-48933.65625,16223.2578125,11964.408203125,-19748.869140625,0.0,0.0,0.0,0.0,2.499999936844688e-05,0.02500000037252903,1000.0,100000000.0,0.30000001192092896
477,2,0.34177401661872864,0.24250000715255737,-0.0076020248234272,-0.00018255003669764847,25362.548828125,6085.73828125,9936.345703125,60968.078125,0.0,0.0,0.0,0.0,2.499999936844688e-05,0.02500000037252903,1000.0,100000000.0,0.30000001192092896
478,2,0.3417743444442749,0.2475000023841858,-0.007610504049807787,-4.928858106723055e-05,22982.298828125,5818.86865234375,3305.96484375,59195.17578125,0.0,0.0,0.0,0.0,2.499999936844688e-05,0.02500000037252903,1000.0,100000000.0,0.30000001192092896
479,2,0.3467724621295929,0.24250000715255737,-0.007598648313432932,-0.00013159042282495648,-43294.07421875,4858.8955078125,8587.5673828125,-275.9197082519531,0.0,0.0,0.0,0.0,2.499999936844688e-05,0.02500000037252903,1000.0,100000000.0,0.30000001192092896
480,2,0.3467727303504944,0.2475000023841858,-0.007602253928780556,-3.2368454412790015e-05,-48284.68359375,4591.9677734375,2852.3330078125,-3991.912353515625,0.0,0.0,0.0,0.0,2.499999936844688e-05,0.02500000037252903,1000.0,100000000.0,0.30000001192092896
481,2,0.3417743444442749,0.2524999976158142,-0.0076105413027107716,8.394392352784052e-05,23001.388671875,-6435.9853515625,-3327.162353515625,59199.8515625,0.0,0.0,0.0,0.0,2.499999936844688e-05,0.02500000037252903,1000.0,100000000.0,0.30000001192092896
482,2,0.34177401661872864,0.2574999928474426,-0.007602110505104065,0.00021715625189244747,25452.93359375,-6471.93115234375,-9963.90625,61025.78125,0.0,0.0,0.0,0.0,2.499999936844688e-05,0.02500000037252903,1000.0,100000000.0,0.30000001192092896
483,2,0.3467727303504944,0.2524999976158142,-0.007602259982377291,6.682681851089001e-05,-48272.23828125,-5188.31640625,-2882.793701171875,-3998.265380859375,0.0,0.0,0.0,0.0,2.499999936844688e-05,0.02500000037252903,1000.0,100000000.0,0.30000001192092896
484,2,0.3467724621295929,0.2574999928474426,-0.007598640862852335,0.00016600055096205324,-43206.8203125,-5224.419921875,-8617.9287109375,-225.13621520996094,0.0,0.0,0.0,0.0,2.499999936844688e-05,0.02500000037252903,1000.0,100000000.0,0.30000001192092896
485,2,0.3417731821537018,0.26249998807907104,-0.0076303910464048386,0.00031249437597580254,-4604.90087890625,-24181.8046875,-14499.3916015625,15162.765625,0.0,0.0,0.0,0.0,2.499999936844688e-05,0.02500000037252903,1000.0,100000000.0,0.30000001192092896
486,2,0.341772198677063,0.26750001311302185,-0.007695372216403484,0.00036995229311287403,11272.0341796875,-23764.806640625,-16935.09765625,26987.234375,0.0,0.0,0.0,0.0,2.499999936844688e-05,0.02500000037252903,1000.0,100000000.0,0.30000001192092896
487,2,0.34677186608314514,0.26249998807907104,-0.007611704990267754,0.00024217063037212938,-48861.20703125,-15643.029296875,-11989.2373046875,-19732.24609375,0.0,0.0,0.0,0.0,2.499999936844688e-05,0.02500000037252903,1000.0,100000000.0,0.30000001192092896
488,2,0.34677112102508545,0.26750001311302185,-0.007641460746526718,0.00029533240012824535,-14081.66796875,-15226.7666015625,-12997.18359375,6166.4033203125,0.0,0.0,0.0,0.0,2.499999936844688e-05,0.02500000037252903,1000.0,100000000.0,0.30000001192092896
489,2,0.3417712450027466,0.27250000834465027,-0.0077127255499362946,0.00040459929732605815,-16578.904296875,-11023.1455078125,-15805.130859375,-15003.26171875,0.0,0.0,0.0,0.0,2.499999936844688e-05,0.02500000037252903,1000.0,100000000.0,0.30000001192092896
490,2,0.3417704105377197,0.2775000035762787,-0.007682494353502989,0.0004164228739682585,-17087.2890625,-11554.7021484375,-11103.1796875,-15380.826171875,0.0,0.0,0.0,0.0,2.499999936844688e-05,0.02500000037252903,1000.0,100000000.0,0.30000001192092896
491,2,0.34677037596702576,0.27250000834465027,-0.007646345533430576,0.00033102690940722823,-19035.421875,-9827.0224609375,-12320.8134765625,-12419.7275390625,0.0,0.0,0.0,0.0,2.499999936844688e-05,0.02500000037252903,1000.0,100000000.0,0.30000001192092896
492,2,0.3467697203159332,0.2775000035762787,-0.00762639194726944,0.00034925382351502776,-13922.173828125,-10359.099609375,-9960.6923828125,-8612.166015625,0.0,0.0,0.0,0.0,2.499999936844688e-05,0.02500000037252903,1000.0,100000000.0,0.30000001192092896
493,2,0.3417697250843048,0.2824999988079071,-0.007656786125153303,0.0004141581885050982,-20760.841796875,-7268.265625,-7627.57421875,-21718.90234375,0.0,0.0,0.0,0.0,2.499999936844688e-05,0.02500000037252903,1000.0,100000000.0,0.30000001192092896
494,2,0.34676915407180786,0.2824999988079071,-0.00760679179802537,0.0003566586528904736,-19251.470703125,-7031.4970703125,-7901.59423828125,-17462.728515625,0.0,0.0,0.0,0.0,2.499999936844688e-05,0.02500000037252903,1000.0,100000000.0,0.30000001192092896
495,2,0.34676864743232727,0.2874999940395355,-0.007587500382214785,0.0003532387490849942,-18693.197265625,-7059.609375,-6142.97900390625,-17048.24609375,0.0,0.0,0.0,0.0,2.499999936844688e-05,0.02500000037252903,1000.0,100000000.0,0.30000001192092896
496,2,0.35176777839660645,0.20749999582767487,-0.007531971670687199,-0.0002794823085423559,-14171.6650390625,5073.13818359375,3675.47216796875,-12798.134765625,0.0,0.0,0.0,0.0,2.499999936844688e-05,0.02500000037252903,1000.0,100000000.0,0.30000001192092896
497,2,0.35676702857017517,0.20250000059604645,-0.007487127557396889,-0.0002555510145612061,-10980.2158203125,4392.66455078125,2853.89990234375,-8871.9482421875,0.0,0.0,0.0,0.0,2.499999936844688e-05,0.02500000037252903,1000.0,100000000.0,0.30000001192092896
498,2,0.35676735639572144,0.20749999582767487,-0.007498322986066341,-0.00025404978077858686,-13676.19921875,4324.66259765625,3700.193603515625,-10877.5048828125,0.0,0.0,0.0,0.0,2.499999936844688e-05,0.02500000037252903,1000.0,100000000.0,0.30000001192092896
499,2,0.3517681956291199,0.21250000596046448,-0.0075463117100298405,-0.0002786442928481847,-16030.33203125,6230.32421875,4875.91748046875,-12566.611328125,0.0,0.0,0.0,0.0,2.499999936844688e-05,0.02500000037252903,1000.0,100000000.0,0.30000001192092896
500,2,0.3517686128616333,0.2175000011920929,-0.007562350016087294,-0.0002727833343669772,-18914.34375,5963.41845703125,6001.2001953125,-14712.189453125,0.0,0.0,0.0,0.0,2.499999936844688e-05,0.02500000037252903,1000.0,100000000.0,0.30000001192092896
501,2,0.3567677140235901,0.21250000596046448,-0.007510300260037184,-0.0002480657713022083,-13523.51953125,5404.82177734375,4635.3486328125,-8899.2646484375,0.0,0.0,0.0,0.0,2.499999936844688e-05,0.02500000037252903,1000.0,100000000.0,0.30000001192092896
502,2,0.35676807165145874,0.2175000011920929,-0.007523057516664267,-0.00023759911709930748,-16756.05078125,5137.7978515625,5659.42724609375,-11308.990234375,0.0,0.0,0.0,0.0,2.499999936844688e-05,0.02500000037252903,1000.0,100000000.0,0.30000001192092896
503,2,0.3517690896987915,0.2224999964237213,-0.007576709613204002,-0.0002590794174466282,-14666.2333984375,8483.8037109375,6974.81640625,-6230.4326171875,0.0,0.0,0.0,0.0,2.499999936844688e-05,0.02500000037252903,1000.0,100000000.0,0.30000001192092896
504,2,0.3517695963382721,0.22750000655651093,-0.007589368615299463,-0.0002375323383603245,-21068.416015625,8834.93359375,7796.58056640625,-10998.8271484375,0.0,0.0,0.0,0.0,2.499999936844688e-05,0.02500000037252903,1000.0,100000000.0,0.30000001192092896
505,2,0.3567684590816498,0.2224999964237213,-0.007534422911703587,-0.00022073258878663182,-14065.5712890625,6798.0517578125,6457.9365234375,-4755.61572265625,0.0,0.0,0.0,0.0,2.499999936844688e-05,0.02500000037252903,1000.0,100000000.0,0.30000001192092896
506,2,0.3567688763141632,0.22750000655651093,-0.007544371765106916,-0.00019746567704714835,-20657.1875,7149.32666015625,7030.87646484375,-9666.2158203125,0.0,0.0,0.0,0.0,2.499999936844688e-05,0.02500000037252903,1000.0,100000000.0,0.30000001192092896
507,2,0.3517701029777527,0.23250000178813934,-0.007593606598675251,-0.0002022996050072834,-14014.1630859375,9748.8642578125,7694.87255859375,4471.4609375,0.0,0.0,0.0,0.0,2.499999936844688e-05,0.02500000037252903,1000.0,100000000.0,0.30000001192092896
508,2,0.3517706096172333,0.23749999701976776,-0.007589445915073156,-0.00015338309458456933,-27665.544921875,9680.80078125,6670.0263671875,-5694.078125,0.0,0.0,0.0,0.0,2.499999936844688e-05,0.02500000037252903,1000.0,100000000.0,0.30000001192092896
509,2,0.3567692041397095,0.23250000178813934,-0.0075492230243980885,-0.0001644715666770935,-16764.416015625,7042.138671875,6805.26611328125,634.9122924804688,0.0,0.0,0.0,0.0,2.499999936844688e-05,0.02500000037252903,1000.0,100000000.0,0.30000001192092896
510,2,0.3567695915699005,0.23749999701976776,-0.007548996713012457,-0.0001217505123349838,-27127.58203125,6974.06005859375,5781.30810546875,-7082.01513671875,0.0,0.0,0.0,0.0,2.499999936844688e-05,0.02500000037252903,1000.0,100000000.0,0.30000001192092896
511,2,0.3517709970474243,0.24250000715255737,-0.007587679661810398,-9.240955841960385e-05,-21473.58203125,3680.60595703125,4613.8564453125,7951.9462890625,0.0,0.0,0.0,0.0,2.499999936844688e-05,0.02500000037252903,1000.0,100000000.0,0.30000001192092896
512,2,0.35177120566368103,0.2475000023841858,-0.007588305044919252,-1.937966953846626e-05,-25646.310546875,3413.647216796875,1526.6480712890625,4842.29736328125,0.0,0.0,0.0,0.0,2.499999936844688e-05,0.02500000037252903,1000.0,100000000.0,0.30000001192092896
513,2,0.3567698299884796,0.24250000715255737,-0.007549165282398462,-7.103817188180983e-05,-24071.251953125,2632.565185546875,3947.551025390625,1347.0146484375,0.0,0.0,0.0,0.0,2.499999936844688e-05,0.02500000037252903,1000.0,100000000.0,0.30000001192092896
514,2,0.35676994919776917,0.2475000023841858,-0.0075497254729270935,-1.233423699886771e-05,-28172.830078125,2365.61376953125,1303.8695068359375,-1706.1378173828125,0.0,0.0,0.0,0.0,2.499999936844688e-05,0.02500000037252903,1000.0,100000000.0,0.30000001192092896
515,2,0.35177120566368103,0.2524999976158142,-0.007588288746774197,5.363090167520568e-05,-25646.73828125,-3995.518310546875,-1558.4005126953125,4830.974609375,0.0,0.0,0.0,0.0,2.499999936844688e-05,0.02500000037252903,1000.0,100000000.0,0.30000001192092896
516,2,0.3517709970474243,0.2574999928474426,-0.00758760329335928,0.00012662411609198898,-21438.142578125,-4031.5146484375,-4641.58544921875,7967.41455078125,0.0,0.0,0.0,0.0,2.499999936844688e-05,0.02500000037252903,1000.0,100000000.0,0.30000001192092896
517,2,0.35676994919776917,0.2524999976158142,-0.00754970358684659,4.636491212295368e-05,-28167.765625,-2940.787353515625,-1337.4652099609375,-1705.5118408203125,0.0,0.0,0.0,0.0,2.499999936844688e-05,0.02500000037252903,1000.0,100000000.0,0.30000001192092896
518,2,0.3567698299884796,0.2574999928474426,-0.00754907401278615,0.00010506016405997798,-24045.69921875,-2976.80615234375,-3976.48583984375,1363.2061767578125,0.0,0.0,0.0,0.0,2.499999936844688e-05,0.02500000037252903,1000.0,100000000.0,0.30000001192092896
519,2,0.3517706096172333,0.26249998807907104,-0.007589227985590696,0.0001875657617347315,-27635.779296875,-9109.857421875,-6689.02734375,-5685.8447265625,0.0,0.0,0.0,0.0,2.499999936844688e-05,0.02500000037252903,1000.0,100000000.0,0.30000001192092896
520,2,0.3517701029777527,0.26750001311302185,-0.007593161892145872,0.00023645503097213805,-14021.9453125,-8692.9921875,-7700.21240234375,4451.48095703125,0.0,0.0,0.0,0.0,2.499999936844688e-05,0.02500000037252903,1000.0,100000000.0,0.30000001192092896
521,2,0.3567695915699005,0.26249998807907104,-0.007548777852207422,0.00015578517923131585,-27086.845703125,-6411.16455078125,-5802.04052734375,-7043.51953125,0.0,0.0,0.0,0.0,2.499999936844688e-05,0.02500000037252903,1000.0,100000000.0,0.30000001192092896
522,2,0.3567692041397095,0.26750001311302185,-0.007548815570771694,0.0001985402195714414,-16752.06640625,-5994.12939453125,-6814.232421875,653.007080078125,0.0,0.0,0.0,0.0,2.499999936844688e-05,0.02500000037252903,1000.0,100000000.0,0.30000001192092896
523,2,0.3517695963382721,0.27250000834465027,-0.007588639389723539,0.000271739496383816,-21054.66796875,-8397.025390625,-7788.83984375,-10946.982421875,0.0,0.0,0.0,0.0,2.499999936844688e-05,0.02500000037252903,1000.0,100000000.0,0.30000001192092896
524,2,0.3517690896987915,0.2775000035762787,-0.007575701456516981,0.0002934199874289334,-14760.826171875,-8928.98046875,-6954.83935546875,-6259.03173828125,0.0,0.0,0.0,0.0,2.499999936844688e-05,0.02500000037252903,1000.0,100000000.0,0.30000001192092896
525,2,0.3567688763141632,0.27250000834465027,-0.007543726824223995,0.00023163527657743543,-20598.65625,-6730.67822265625,-7030.63427734375,-9565.408203125,0.0,0.0,0.0,0.0,2.499999936844688e-05,0.02500000037252903,1000.0,100000000.0,0.30000001192092896
526,2,0.3567684590816498,0.2775000035762787,-0.007533556316047907,0.0002550724020693451,-14054.7626953125,-7262.5458984375,-6451.11767578125,-4689.89111328125,0.0,0.0,0.0,0.0,2.499999936844688e-05,0.02500000037252903,1000.0,100000000.0,0.30000001192092896
527,2,0.3517686426639557,0.2824999988079071,-0.00756112253293395,0.0003073255065828562,-18931.470703125,-6625.80322265625,-5974.13720703125,-14630.2607421875,0.0,0.0,0.0,0.0,2.499999936844688e-05,0.02500000037252903,1000.0,100000000.0,0.30000001192092896
528,2,0.3517681956291199,0.2874999940395355,-0.007544856518507004,0.00031345427851192653,-15961.2978515625,-6661.77978515625,-4847.4423828125,-12417.1015625,0.0,0.0,0.0,0.0,2.499999936844688e-05,0.02500000037252903,1000.0,100000000.0,0.30000001192092896
529,2,0.35676810145378113,0.2824999988079071,-0.007522020488977432,0.0002721569035202265,-16664.50390625,-5775.97900390625,-5652.80419921875,-11149.986328125,0.0,0.0,0.0,0.0,2.499999936844688e-05,0.02500000037252903,1000.0,100000000.0,0.30000001192092896
530,2,0.3567677140235901,0.2874999940395355,-0.0075090727768838406,0.0002828876895364374,-13329.0595703125,-5812.095703125,-4635.55908203125,-8664.091796875,0.0,0.0,0.0,0.0,2.499999936844688e-05,0.02500000037252903,1000.0,100000000.0,0.30000001192092896
531,2,0.35176777839660645,0.29249998927116394,-0.007530070375651121,0.00031464299536310136,-13905.162109375,-4831.7431640625,-3672.32958984375,-12527.1435546875,0.0,0.0,0.0,0.0,2.499999936844688e-05,0.02500000037252903,1000.0,100000000.0,0.30000001192092896
532,2,0.35676735639572144,0.29249998927116394,-0.007496771868318319,0.0002891127369366586,-13361.6279296875,-3968.8193359375,-3722.33837890625,-10645.478515625,0.0,0.0,0.0,0.0,2.499999936844688e-05,0.02500000037252903,1000.0,100000000.0,0.30000001192092896
533,2,0.35676702857017517,0.29750001430511475,-0.0074851177632808685,0.00029083204572089016,-10238.5751953125,-3544.31201171875,-2913.148681640625,-8317.37890625,0.0,0.0,0.0,0.0,2.499999936844688e-05,0.02500000037252903,1000.0,100000000.0,0.30000001192092896
534,2,0.3617664873600006,0.19750000536441803,-0.007449014112353325,-0.00023984075232874602,-7796.00927734375,2511.460205078125,2285.658935546875,-5181.08984375,0.0,0.0,0.0,0.0,2.499999936844688e-05,0.02500000037252903,1000.0,100000000.0,0.30000001192092896
535,2,0.36676618456840515,0.19750000536441803,-0.00742313964292407,-0.00022262764105107635,-9715.568359375,2306.2880859375,2493.738525390625,-6392.92822265625,0.0,0.0,0.0,0.0,2.499999936844688e-05,0.02500000037252903,1000.0,100000000.0,0.30000001192092896
536,2,0.3617666959762573,0.20250000059604645,-0.00745749194175005,-0.00023576851526740938,-10990.1064453125,3724.4921875,2760.908203125,-7621.125,0.0,0.0,0.0,0.0,2.499999936844688e-05,0.02500000037252903,1000.0,100000000.0,0.30000001192092896
537,2,0.3617669343948364,0.20749999582767487,-0.007466701325029135,-0.00023001273802947253,-13515.8515625,3657.868896484375,3316.932861328125,-9505.2666015625,0.0,0.0,0.0,0.0,2.499999936844688e-05,0.02500000037252903,1000.0,100000000.0,0.30000001192092896
538,2,0.3667663335800171,0.20250000059604645,-0.007430584169924259,-0.00021659370395354927,-10262.490234375,3074.808349609375,2786.47802734375,-6200.27734375,0.0,0.0,0.0,0.0,2.499999936844688e-05,0.02500000037252903,1000.0,100000000.0,0.30000001192092896
539,2,0.3667665421962738,0.20749999582767487,-0.007437902968376875,-0.00020845314429607242,-12846.2568359375,3006.79345703125,3276.4140625,-8125.755859375,0.0,0.0,0.0,0.0,2.499999936844688e-05,0.02500000037252903,1000.0,100000000.0,0.30000001192092896
540,2,0.3617672324180603,0.21250000596046448,-0.007476277183741331,-0.0002202699688496068,-13040.1474609375,4590.62744140625,3836.613525390625,-7158.564453125,0.0,0.0,0.0,0.0,2.499999936844688e-05,0.02500000037252903,1000.0,100000000.0,0.30000001192092896
541,2,0.3617675304412842,0.2175000011920929,-0.007486216723918915,-0.00020654041145462543,-16218.5068359375,4323.623046875,4319.78564453125,-9526.7548828125,0.0,0.0,0.0,0.0,2.499999936844688e-05,0.02500000037252903,1000.0,100000000.0,0.30000001192092896
542,2,0.3667667806148529,0.21250000596046448,-0.007445525377988815,-0.0001969677396118641,-12738.1875,3771.579345703125,3713.54052734375,-6243.2880859375,0.0,0.0,0.0,0.0,2.499999936844688e-05,0.02500000037252903,1000.0,100000000.0,0.30000001192092896
543,2,0.366767019033432,0.2175000011920929,-0.0074534486047923565,-0.000182137664523907,-15957.4755859375,3504.506103515625,4097.6953125,-8638.76171875,0.0,0.0,0.0,0.0,2.499999936844688e-05,0.02500000037252903,1000.0,100000000.0,0.30000001192092896
544,2,0.36176785826683044,0.2224999964237213,-0.0074950880371034145,-0.00018766059656627476,-13801.4794921875,5332.5166015625,4599.1025390625,-3930.564208984375,0.0,0.0,0.0,0.0,2.499999936844688e-05,0.02500000037252903,1000.0,100000000.0,0.30000001192092896
545,2,0.3617681562900543,0.22750000655651093,-0.007502867840230465,-0.00016363034956157207,-18469.95703125,5683.7578125,4674.52197265625,-7408.2392578125,0.0,0.0,0.0,0.0,2.499999936844688e-05,0.02500000037252903,1000.0,100000000.0,0.30000001192092896
546,2,0.3667672872543335,0.2224999964237213,-0.007460624910891056,-0.00016312135267071426,-14581.9287109375,4203.34716796875,4285.24267578125,-4515.7900390625,0.0,0.0,0.0,0.0,2.499999936844688e-05,0.02500000037252903,1000.0,100000000.0,0.30000001192092896
547,2,0.3667675256729126,0.22750000655651093,-0.007467030547559261,-0.00013991864398121834,-18978.54296875,4554.48291015625,4275.93017578125,-7791.15087890625,0.0,0.0,0.0,0.0,2.499999936844688e-05,0.02500000037252903,1000.0,100000000.0,0.30000001192092896
548,2,0.3617684543132782,0.23250000178813934,-0.007507842965424061,-0.0001330244413111359,-14886.9345703125,4947.287109375,4316.44091796875,421.3700256347656,0.0,0.0,0.0,0.0,2.499999936844688e-05,0.02500000037252903,1000.0,100000000.0,0.30000001192092896
549,2,0.3617686927318573,0.23749999701976776,-0.007510037161409855,-9.584389044903219e-05,-20307.439453125,4879.17138671875,3524.804931640625,-3613.8173828125,0.0,0.0,0.0,0.0,2.499999936844688e-05,0.02500000037252903,1000.0,100000000.0,0.30000001192092896
550,2,0.3667677640914917,0.23250000178813934,-0.0074715521186590195,-0.00011190700752194971,-17082.9609375,3740.397705078125,3895.068359375,-2530.241943359375,0.0,0.0,0.0,0.0,2.499999936844688e-05,0.02500000037252903,1000.0,100000000.0,0.30000001192092896
551,2,0.366767942905426,0.23749999701976776,-0.007474210578948259,-7.908723637228832e-05,-21751.791015625,3672.462158203125,3142.8701171875,-6008.6767578125,0.0,0.0,0.0,0.0,2.499999936844688e-05,0.02500000037252903,1000.0,100000000.0,0.30000001192092896
552,2,0.3617688715457916,0.24250000715255737,-0.007511440198868513,-5.3717456466984004e-05,-17533.173828125,1792.0672607421875,2341.546630859375,2404.486083984375,0.0,0.0,0.0,0.0,2.499999936844688e-05,0.02500000037252903,1000.0,100000000.0,0.30000001192092896
553,2,0.3617689609527588,0.2475000023841858,-0.0075120506808161736,-6.645174835284706e-06,-19785.3359375,1525.1563720703125,766.8331298828125,727.80078125,0.0,0.0,0.0,0.0,2.499999936844688e-05,0.02500000037252903,1000.0,100000000.0,0.30000001192092896
554,2,0.36676809191703796,0.24250000715255737,-0.007475925609469414,-4.282078953110613e-05,-20374.294921875,1281.6785888671875,2069.522216796875,-2167.085205078125,0.0,0.0,0.0,0.0,2.499999936844688e-05,0.02500000037252903,1000.0,100000000.0,0.30000001192092896
555,2,0.36676815152168274,0.2475000023841858,-0.007476696744561195,-3.107788643319509e-06,-22351.935546875,1014.6930541992188,674.566650390625,-3639.83984375,0.0,0.0,0.0,0.0,2.499999936844688e-05,0.02500000037252903,1000.0,100000000.0,0.30000001192092896
556,2,0.3617689609527588,0.2524999976158142,-0.007512029726058245,4.0433038520859554e-05,-19779.279296875,-2097.675537109375,-806.5502319335938,735.636962890625,0.0,0.0,0.0,0.0,2.499999936844688e-05,0.02500000037252903,1000.0,100000000.0,0.30000001192092896
557,2,0.3617688715457916,0.2574999928474426,-0.0075113545171916485,8.75175028340891e-05,-17527.166015625,-2133.61083984375,-2378.640380859375,2412.498291015625,0.0,0.0,0.0,0.0,2.499999936844688e-05,0.02500000037252903,1000.0,100000000.0,0.30000001192092896
558,2,0.36676815152168274,0.2524999976158142,-0.0074766892939805984,3.661533264676109e-05,-22341.986328125,-1587.8223876953125,-719.48291015625,-3625.644287109375,0.0,0.0,0.0,0.0,2.499999936844688e-05,0.02500000037252903,1000.0,100000000.0,0.30000001192092896
559,2,0.36676809191703796,0.2574999928474426,-0.00747587950900197,7.63487332733348e-05,-20368.060546875,-1623.89501953125,-2112.7060546875,-2155.353271484375,0.0,0.0,0.0,0.0,2.499999936844688e-05,0.02500000037252903,1000.0,100000000.0,0.30000001192092896
560,2,0.3617686927318573,0.26249998807907104,-0.007509847171604633,0.0001296877017011866,-20279.548828125,-4322.9228515625,-3558.147705078125,-3570.02392578125,0.0,0.0,0.0,0.0,2.499999936844688e-05,0.02500000037252903,1000.0,100000000.0,0.30000001192092896
561,2,0.3617684543132782,0.26750001311302185,-0.007507506292313337,0.0001669435587245971,-14882.498046875,-3905.789794921875,-4345.09814453125,447.25189208984375,0.0,0.0,0.0,0.0,2.499999936844688e-05,0.02500000037252903,1000.0,100000000.0,0.30000001192092896
562,2,0.366767942905426,0.26249998807907104,-0.007474097888916731,0.00011266662477282807,-21718.212890625,-3120.97119140625,-3184.515869140625,-5955.4775390625,0.0,0.0,0.0,0.0,2.499999936844688e-05,0.02500000037252903,1000.0,100000000.0,0.30000001192092896
563,2,0.3667677640914917,0.26750001311302185,-0.00747134443372488,0.0001455688470741734,-17066.73828125,-2703.766357421875,-3934.764404296875,-2490.1357421875,0.0,0.0,0.0,0.0,2.499999936844688e-05,0.02500000037252903,1000.0,100000000.0,0.30000001192092896
564,2,0.3617681860923767,0.27250000834465027,-0.007502346765249968,0.0001976777712116018,-18419.42578125,-5272.75244140625,-4701.25537109375,-7308.4609375,0.0,0.0,0.0,0.0,2.499999936844688e-05,0.02500000037252903,1000.0,100000000.0,0.30000001192092896
565,2,0.36176785826683044,0.2775000035762787,-0.007494408171623945,0.00022189164883457124,-13767.24609375,-5804.7529296875,-4627.36572265625,-3842.4208984375,0.0,0.0,0.0,0.0,2.499999936844688e-05,0.02500000037252903,1000.0,100000000.0,0.30000001192092896
566,2,0.3667675256729126,0.27250000834465027,-0.007466698065400124,0.00017370039131492376,-18920.779296875,-4145.22314453125,-4316.34130859375,-7691.21240234375,0.0,0.0,0.0,0.0,2.499999936844688e-05,0.02500000037252903,1000.0,100000000.0,0.30000001192092896
567,2,0.3667672872543335,0.2775000035762787,-0.007460202556103468,0.00019706215243786573,-14518.50390625,-4676.95458984375,-4329.84716796875,-4410.693359375,0.0,0.0,0.0,0.0,2.499999936844688e-05,0.02500000037252903,1000.0,100000000.0,0.30000001192092896
568,2,0.36176756024360657,0.2824999988079071,-0.007485422305762768,0.00024098051653709263,-16116.2900390625,-4933.1142578125,-4355.3037109375,-9378.572265625,0.0,0.0,0.0,0.0,2.499999936844688e-05,0.02500000037252903,1000.0,100000000.0,0.30000001192092896
569,2,0.3617672324180603,0.2874999940395355,-0.00747534167021513,0.00025494315195828676,-12817.16015625,-4969.197265625,-3885.7939453125,-6920.0498046875,0.0,0.0,0.0,0.0,2.499999936844688e-05,0.02500000037252903,1000.0,100000000.0,0.30000001192092896
570,2,0.366767019033432,0.2824999988079071,-0.007452978286892176,0.00021623876818921417,-15841.6435546875,-4082.22607421875,-4150.85498046875,-8506.349609375,0.0,0.0,0.0,0.0,2.499999936844688e-05,0.02500000037252903,1000.0,100000000.0,0.30000001192092896
571,2,0.3667667806148529,0.2874999940395355,-0.007444979622960091,0.00023122865241020918,-12497.4150390625,-4118.2509765625,-3779.258056640625,-6016.09228515625,0.0,0.0,0.0,0.0,2.499999936844688e-05,0.02500000037252903,1000.0,100000000.0,0.30000001192092896
572,2,0.3617669343948364,0.29249998927116394,-0.007465545553714037,0.0002648290537763387,-13254.6826171875,-3201.77734375,-3383.516357421875,-9358.8076171875,0.0,0.0,0.0,0.0,2.499999936844688e-05,0.02500000037252903,1000.0,100000000.0,0.30000001192092896
573,2,0.3617666959762573,0.29750001430511475,-0.007456034421920776,0.00027063797460868955,-10366.669921875,-2784.49560546875,-2848.68603515625,-7208.79443359375,0.0,0.0,0.0,0.0,2.499999936844688e-05,0.02500000037252903,1000.0,100000000.0,0.30000001192092896
574,2,0.3667665421962738,0.29249998927116394,-0.00743721891194582,0.00024277159536723047,-12598.2939453125,-2464.387939453125,-3354.68798828125,-8019.255859375,0.0,0.0,0.0,0.0,2.499999936844688e-05,0.02500000037252903,1000.0,100000000.0,0.30000001192092896
575,2,0.3667663633823395,0.29750001430511475,-0.007429694756865501,0.00025086718960665166,-9699.9072265625,-2047.1962890625,-2877.02490234375,-5860.857421875,0.0,0.0,0.0,0.0,2.499999936844688e-05,0.02500000037252903,1000.0,100000000.0,0.30000001192092896
576,2,0.3617664873600006,0.30250000953674316,-0.007447166368365288,0.0002747455146163702,-7382.11962890625,-1667.2935791015625,-2424.200439453125,-5028.8359375,0.0,0.0,0.0,0.0,2.499999936844688e-05,0.02500000037252903,1000.0,100000000.0,0.30000001192092896
577,2,0.36676618456840515,0.30250000953674316,-0.0074219717644155025,0.0002567712508607656,-9149.45703125,-1480.8251953125,-2597.620361328125,-6177.39501953125,0.0,0.0,0.0,0.0,2.499999936844688e-05,0.02500000037252903,1000.0,100000000.0,0.30000001192092896
578,2,0.3717658519744873,0.19750000536441803,-0.007398588582873344,-0.00020505076099652797,-9961.775390625,2057.296142578125,2594.224609375,-6381.4404296875,0.0,0.0,0.0,0.0,2.499999936844688e-05,0.02500000037252903,1000.0,100000000.0,0.30000001192092896
579,2,0.3767654597759247,0.19249999523162842,-0.007370141800493002,-0.0001929633435793221,-7217.50537109375,1273.9688720703125,2423.787841796875,-4064.80615234375,0.0,0.0,0.0,0.0,2.499999936844688e-05,0.02500000037252903,1000.0,100000000.0,0.30000001192092896
580,2,0.37676554918289185,0.19750000536441803,-0.007375939283519983,-0.00018703418027143925,-8994.234375,1625.259765625,2590.54638671875,-5388.31396484375,0.0,0.0,0.0,0.0,2.499999936844688e-05,0.02500000037252903,1000.0,100000000.0,0.30000001192092896
581,2,0.37176600098609924,0.20250000059604645,-0.007404985837638378,-0.00019765795150306076,-9868.2021484375,2514.150634765625,2754.3818359375,-5289.89306640625,0.0,0.0,0.0,0.0,2.499999936844688e-05,0.02500000037252903,1000.0,100000000.0,0.30000001192092896
582,2,0.3717661499977112,0.20749999582767487,-0.007410903926938772,-0.0001879541960079223,-11570.0380859375,2446.04931640625,2934.629638671875,-6556.431640625,0.0,0.0,0.0,0.0,2.499999936844688e-05,0.02500000037252903,1000.0,100000000.0,0.30000001192092896
583,2,0.376765638589859,0.20250000059604645,-0.007381504867225885,-0.00017911367467604578,-9053.5126953125,2101.465087890625,2740.7607421875,-4447.4658203125,0.0,0.0,0.0,0.0,2.499999936844688e-05,0.02500000037252903,1000.0,100000000.0,0.30000001192092896
584,2,0.37676578760147095,0.20749999582767487,-0.00738685904070735,-0.00016920213238336146,-10691.966796875,2033.6572265625,2874.651123046875,-5666.98681640625,0.0,0.0,0.0,0.0,2.499999936844688e-05,0.02500000037252903,1000.0,100000000.0,0.30000001192092896
585,2,0.3717663288116455,0.21250000596046448,-0.007417007815092802,-0.0001754295954015106,-10937.46484375,3026.62109375,3081.092041015625,-4435.8271484375,0.0,0.0,0.0,0.0,2.499999936844688e-05,0.02500000037252903,1000.0,100000000.0,0.30000001192092896
586,2,0.3717665374279022,0.2175000011920929,-0.007423296105116606,-0.00016008419333957136,-13485.7373046875,2759.554931640625,3193.681396484375,-6334.57421875,0.0,0.0,0.0,0.0,2.499999936844688e-05,0.02500000037252903,1000.0,100000000.0,0.30000001192092896
587,2,0.3767659068107605,0.21250000596046448,-0.007392179686576128,-0.00015678662748541683,-10190.734375,2392.18701171875,2974.899169921875,-3758.337646484375,0.0,0.0,0.0,0.0,2.499999936844688e-05,0.02500000037252903,1000.0,100000000.0,0.30000001192092896
588,2,0.3767660856246948,0.2175000011920929,-0.007397464942187071,-0.0001418668543919921,-12686.0751953125,2125.1611328125,3041.5478515625,-5615.35498046875,0.0,0.0,0.0,0.0,2.499999936844688e-05,0.02500000037252903,1000.0,100000000.0,0.30000001192092896
589,2,0.37176671624183655,0.2224999964237213,-0.007429067511111498,-0.0001413712598150596,-12073.662109375,3236.9228515625,3171.37451171875,-2775.5068359375,0.0,0.0,0.0,0.0,2.499999936844688e-05,0.02500000037252903,1000.0,100000000.0,0.30000001192092896
590,2,0.37176692485809326,0.22750000655651093,-0.007434298750013113,-0.00011929015454370528,-15085.142578125,3588.263671875,3013.999755859375,-5018.0595703125,0.0,0.0,0.0,0.0,2.499999936844688e-05,0.02500000037252903,1000.0,100000000.0,0.30000001192092896
591,2,0.37676623463630676,0.2224999964237213,-0.007402305491268635,-0.00012415644596330822,-11885.6259765625,2513.154296875,2983.285888671875,-2949.81591796875,0.0,0.0,0.0,0.0,2.499999936844688e-05,0.02500000037252903,1000.0,100000000.0,0.30000001192092896
592,2,0.3767663836479187,0.22750000655651093,-0.007406678516417742,-0.00010365488560637459,-14709.904296875,2864.459716796875,2800.229248046875,-5052.7705078125,0.0,0.0,0.0,0.0,2.499999936844688e-05,0.02500000037252903,1000.0,100000000.0,0.30000001192092896
593,2,0.3717671036720276,0.23250000178813934,-0.007438320200890303,-9.379115363117307e-05,-13289.2275390625,2763.216552734375,2647.843505859375,-885.9068603515625,0.0,0.0,0.0,0.0,2.499999936844688e-05,0.02500000037252903,1000.0,100000000.0,0.30000001192092896
594,2,0.37176722288131714,0.23749999701976776,-0.007441153284162283,-6.487464997917414e-05,-16034.3125,2695.273681640625,2072.711181640625,-2929.435302734375,0.0,0.0,0.0,0.0,2.499999936844688e-05,0.02500000037252903,1000.0,100000000.0,0.30000001192092896
595,2,0.37676650285720825,0.23250000178813934,-0.007410138379782438,-8.05220624897629e-05,-13747.1455078125,2130.0224609375,2436.0712890625,-2182.6318359375,0.0,0.0,0.0,0.0,2.499999936844688e-05,0.02500000037252903,1000.0,100000000.0,0.30000001192092896
596,2,0.3767666220664978,0.23749999701976776,-0.007412705570459366,-5.475815123645589e-05,-16206.5009765625,2062.11279296875,1890.7884521484375,-4012.71044921875,0.0,0.0,0.0,0.0,2.499999936844688e-05,0.02500000037252903,1000.0,100000000.0,0.30000001192092896
597,2,0.3717673420906067,0.24250000715255737,-0.007443001493811607,-3.36646698997356e-05,-14746.4833984375,872.5223388671875,1331.8526611328125,-44.97161865234375,0.0,0.0,0.0,0.0,2.499999936844688e-05,0.02500000037252903,1000.0,100000000.0,0.30000001192092896
598,2,0.37176740169525146,0.2475000023841858,-0.007443863898515701,-1.613565530078631e-07,-15867.6708984375,605.5698852539062,425.07489013671875,-880.36669921875,0.0,0.0,0.0,0.0,2.499999936844688e-05,0.02500000037252903,1000.0,100000000.0,0.30000001192092896
599,2,0.37676671147346497,0.24250000715255737,-0.007414404768496752,-2.730602318479214e-05,-15541.2109375,616.2319946289062,1205.850341796875,-2086.50927734375,0.0,0.0,0.0,0.0,2.499999936844688e-05,0.02500000037252903,1000.0,100000000.0,0.30000001192092896
600,2,0.37676674127578735,0.2475000023841858,-0.007415236439555883,1.8343076817473047e-06,-16535.021484375,349.18804931640625,381.2245178222656,-2828.083251953125,0.0,0.0,0.0,0.0,2.499999936844688e-05,0.02500000037252903,1000.0,100000000.0,0.30000001192092896
601,2,0.37176740169525146,0.2524999976158142,-0.007443870417773724,3.3353815524606034e-05,-15857.38671875,-1179.99609375,-481.81231689453125,-864.6522827148438,0.0,0.0,0.0,0.0,2.499999936844688e-05,0.02500000037252903,1000.0,100000000.0,0.30000001192092896
602,2,0.3717673420906067,0.2574999928474426,-0.007442996837198734,6.688092980766669e-05,-14743.7802734375,-1216.053466796875,-1388.8089599609375,-34.61772537231445,0.0,0.0,0.0,0.0,2.499999936844688e-05,0.02500000037252903,1000.0,100000000.0,0.30000001192092896
603,2,0.37676674127578735,0.2524999976158142,-0.007415257394313812,3.0984283512225375e-05,-16526.751953125,-925.527587890625,-443.8446350097656,-2814.766357421875,0.0,0.0,0.0,0.0,2.499999936844688e-05,0.02500000037252903,1000.0,100000000.0,0.30000001192092896
604,2,0.37676671147346497,0.2574999928474426,-0.007414443884044886,6.0143895098008215e-05,-15540.1259765625,-961.5885620117188,-1269.36962890625,-2078.693603515625,0.0,0.0,0.0,0.0,2.499999936844688e-05,0.02500000037252903,1000.0,100000000.0,0.30000001192092896
605,2,0.37176722288131714,0.26249998807907104,-0.0074411192908883095,9.814263466978446e-05,-16004.765625,-2147.029296875,-2131.013427734375,-2879.572265625,0.0,0.0,0.0,0.0,2.499999936844688e-05,0.02500000037252903,1000.0,100000000.0,0.30000001192092896
606,2,0.3717671036720276,0.26750001311302185,-0.007438236381858587,0.00012713878822978586,-13270.4482421875,-1729.795654296875,-2708.248046875,-843.0167236328125,0.0,0.0,0.0,0.0,2.499999936844688e-05,0.02500000037252903,1000.0,100000000.0,0.30000001192092896
607,2,0.3767666220664978,0.26249998807907104,-0.0074127488769590855,8.763606456341222e-05,-16186.333984375,-1516.1375732421875,-1956.69287109375,-3974.79736328125,0.0,0.0,0.0,0.0,2.499999936844688e-05,0.02500000037252903,1000.0,100000000.0,0.30000001192092896
608,2,0.37676650285720825,0.26750001311302185,-0.0074101719073951244,0.00011346075916662812,-13734.6884765625,-1098.9443359375,-2505.7685546875,-2150.657958984375,0.0,0.0,0.0,0.0,2.499999936844688e-05,0.02500000037252903,1000.0,100000000.0,0.30000001192092896
609,2,0.37176692485809326,0.27250000834465027,-0.0074341450817883015,0.00015274144243448973,-15029.3369140625,-3175.173095703125,-3078.958984375,-4929.28955078125,0.0,0.0,0.0,0.0,2.499999936844688e-05,0.02500000037252903,1000.0,100000000.0,0.30000001192092896
610,2,0.37176674604415894,0.2775000035762787,-0.0074288854375481606,0.00017495152133051306,-12000.294921875,-3707.143798828125,-3243.077392578125,-2672.686767578125,0.0,0.0,0.0,0.0,2.499999936844688e-05,0.02500000037252903,1000.0,100000000.0,0.30000001192092896
611,2,0.3767663836479187,0.27250000834465027,-0.007406684570014477,0.0001366687356494367,-14673.03515625,-2447.100341796875,-2875.673583984375,-4990.572265625,0.0,0.0,0.0,0.0,2.499999936844688e-05,0.02500000037252903,1000.0,100000000.0,0.30000001192092896
612,2,0.37676623463630676,0.2775000035762787,-0.007402330171316862,0.00015726104902569205,-11834.0498046875,-2979.149658203125,-3066.411376953125,-2876.837158203125,0.0,0.0,0.0,0.0,2.499999936844688e-05,0.02500000037252903,1000.0,100000000.0,0.30000001192092896
613,2,0.3717665374279022,0.2824999988079071,-0.007423128001391888,0.00019377928401809186,-13375.1435546875,-3306.64599609375,-3272.87646484375,-6221.7822265625,0.0,0.0,0.0,0.0,2.499999936844688e-05,0.02500000037252903,1000.0,100000000.0,0.30000001192092896
614,2,0.3717663288116455,0.2874999940395355,-0.007416827604174614,0.00020922355179209262,-10712.693359375,-3342.615478515625,-3168.397216796875,-4239.80126953125,0.0,0.0,0.0,0.0,2.499999936844688e-05,0.02500000037252903,1000.0,100000000.0,0.30000001192092896
615,2,0.3767660856246948,0.2824999988079071,-0.007397557143121958,0.00017504749121144414,-12614.033203125,-2646.07568359375,-3131.640869140625,-5544.0078125,0.0,0.0,0.0,0.0,2.499999936844688e-05,0.02500000037252903,1000.0,100000000.0,0.30000001192092896
616,2,0.3767659068107605,0.2874999940395355,-0.007392318919301033,0.00019002721819560975,-10033.423828125,-2682.095703125,-3071.343994140625,-3622.037109375,0.0,0.0,0.0,0.0,2.499999936844688e-05,0.02500000037252903,1000.0,100000000.0,0.30000001192092896
617,2,0.3717661499977112,0.29249998927116394,-0.007410662714391947,0.00022174522746354342,-11335.986328125,-1827.21923828125,-3024.3251953125,-6468.21240234375,0.0,0.0,0.0,0.0,2.499999936844688e-05,0.02500000037252903,1000.0,100000000.0,0.30000001192092896
618,2,0.37176600098609924,0.29750001430511475,-0.007404631935060024,0.00023134418006520718,-9340.109375,-1410.05859375,-2840.939697265625,-4983.44873046875,0.0,0.0,0.0,0.0,2.499999936844688e-05,0.02500000037252903,1000.0,100000000.0,0.30000001192092896
619,2,0.37676578760147095,0.29249998927116394,-0.0073870099149644375,0.00020242204482201487,-10527.533203125,-1346.1080322265625,-2969.519775390625,-5618.35302734375,0.0,0.0,0.0,0.0,2.499999936844688e-05,0.02500000037252903,1000.0,100000000.0,0.30000001192092896
620,2,0.3767656683921814,0.29750001430511475,-0.0073816305957734585,0.000212232131161727,-8656.3681640625,-928.74609375,-2826.059814453125,-4225.8671875,0.0,0.0,0.0,0.0,2.499999936844688e-05,0.02500000037252903,1000.0,100000000.0,0.30000001192092896
621,2,0.3717658519744873,0.30250000953674316,-0.007398050744086504,0.00023853342281654477,-9383.55859375,-1192.520263671875,-2668.352783203125,-6150.728515625,0.0,0.0,0.0,0.0,2.499999936844688e-05,0.02500000037252903,1000.0,100000000.0,0.30000001192092896
622,2,0.37676554918289185,0.30250000953674316,-0.0073759593069553375,0.000219995723455213,-8613.3251953125,-729.7322387695312,-2655.723876953125,-5256.2724609375,0.0,0.0,0.0,0.0,2.499999936844688e-05,0.02500000037252903,1000.0,100000000.0,0.30000001192092896
623,2,0.3767654597759247,0.3075000047683716,-0.007370039355009794,0.00022571404406335205,-6846.94482421875,-1063.05029296875,-2458.527587890625,-3939.11279296875,0.0,0.0,0.0,0.0,2.499999936844688e-05,0.02500000037252903,1000.0,100000000.0,0.30000001192092896
624,2,0.381765216588974,0.19249999523162842,-0.007350521627813578,-0.00017612063675187528,-5847.146484375,855.3683471679688,2288.022705078125,-2841.137451171875,0.0,0.0,0.0,0.0,2.499999936844688e-05,0.02500000037252903,1000.0,100000000.0,0.30000001192092896
625,2,0.3817652761936188,0.19750000536441803,-0.00735540920868516,-0.00016971942386589944,-7285.955078125,1206.904296875,2333.920166015625,-3913.1328125,0.0,0.0,0.0,0.0,2.499999936844688e-05,0.02500000037252903,1000.0,100000000.0,0.30000001192092896
626,2,0.3867649734020233,0.19249999523162842,-0.007334158755838871,-0.00015986069047357887,-5394.0068359375,503.5627136230469,2232.0458984375,-2452.515380859375,0.0,0.0,0.0,0.0,2.499999936844688e-05,0.02500000037252903,1000.0,100000000.0,0.30000001192092896
627,2,0.3867650032043457,0.19750000536441803,-0.007338474038988352,-0.00015362432168330997,-6748.10009765625,854.9321899414062,2265.6640625,-3460.18603515625,0.0,0.0,0.0,0.0,2.499999936844688e-05,0.02500000037252903,1000.0,100000000.0,0.30000001192092896
628,2,0.38176536560058594,0.20250000059604645,-0.007360223215073347,-0.00016155738558154553,-7234.92578125,1679.447265625,2383.66455078125,-2918.5615234375,0.0,0.0,0.0,0.0,2.499999936844688e-05,0.02500000037252903,1000.0,100000000.0,0.30000001192092896
629,2,0.3817654550075531,0.20749999582767487,-0.0073649827390909195,-0.00015163508942350745,-8892.6123046875,1611.5155029296875,2437.04248046875,-4152.681640625,0.0,0.0,0.0,0.0,2.499999936844688e-05,0.02500000037252903,1000.0,100000000.0,0.30000001192092896
630,2,0.3867650628089905,0.20250000059604645,-0.0073426649905741215,-0.00014568828919436783,-6627.40771484375,1252.8900146484375,2306.03076171875,-2389.8291015625,0.0,0.0,0.0,0.0,2.499999936844688e-05,0.02500000037252903,1000.0,100000000.0,0.30000001192092896
631,2,0.38676512241363525,0.20749999582767487,-0.007346753496676683,-0.0001360530877718702,-8312.943359375,1184.9613037109375,2353.04833984375,-3645.035888671875,0.0,0.0,0.0,0.0,2.499999936844688e-05,0.02500000037252903,1000.0,100000000.0,0.30000001192092896
632,2,0.38176554441452026,0.21250000596046448,-0.007369572762399912,-0.0001395086874254048,-8334.2158203125,1819.830810546875,2446.806884765625,-2334.79833984375,0.0,0.0,0.0,0.0,2.499999936844688e-05,0.02500000037252903,1000.0,100000000.0,0.30000001192092896
633,2,0.3817656636238098,0.2175000011920929,-0.0073739904910326,-0.0001251781068276614,-10252.4443359375,1552.78515625,2413.01806640625,-3762.847900390625,0.0,0.0,0.0,0.0,2.499999936844688e-05,0.02500000037252903,1000.0,100000000.0,0.30000001192092896
634,2,0.3867652118206024,0.21250000596046448,-0.007350680883973837,-0.00012449108180589974,-8006.85546875,1346.8680419921875,2352.35302734375,-2175.80810546875,0.0,0.0,0.0,0.0,2.499999936844688e-05,0.02500000037252903,1000.0,100000000.0,0.30000001192092896
635,2,0.3867652714252472,0.2175000011920929,-0.007354447618126869,-0.00011100246047135442,-9863.49609375,1079.8175048828125,2303.847900390625,-3557.552734375,0.0,0.0,0.0,0.0,2.499999936844688e-05,0.02500000037252903,1000.0,100000000.0,0.30000001192092896
636,2,0.38176578283309937,0.2224999964237213,-0.007378025911748409,-0.0001085620024241507,-9375.1904296875,1887.44873046875,2291.044921875,-1420.2884521484375,0.0,0.0,0.0,0.0,2.499999936844688e-05,0.02500000037252903,1000.0,100000000.0,0.30000001192092896
637,2,0.3817659020423889,0.22750000655651093,-0.0073816534131765366,-8.965997403720394e-05,-11349.5244140625,2238.830078125,2081.181396484375,-2890.07568359375,0.0,0.0,0.0,0.0,2.499999936844688e-05,0.02500000037252903,1000.0,100000000.0,0.30000001192092896
638,2,0.38676536083221436,0.2224999964237213,-0.007357876282185316,-9.56174117163755e-05,-9380.9951171875,1410.885009765625,2172.65625,-1798.6124267578125,0.0,0.0,0.0,0.0,2.499999936844688e-05,0.02500000037252903,1000.0,100000000.0,0.30000001192092896
639,2,0.3867654502391815,0.22750000655651093,-0.007360943127423525,-7.833567360648885e-05,-11244.6142578125,1762.1585693359375,1958.54443359375,-3184.779296875,0.0,0.0,0.0,0.0,2.499999936844688e-05,0.02500000037252903,1000.0,100000000.0,0.30000001192092896
640,2,0.3817659914493561,0.23250000178813934,-0.007384595926851034,-6.876292172819376e-05,-10392.826171875,1601.4161376953125,1763.4583740234375,-544.5692138671875,0.0,0.0,0.0,0.0,2.499999936844688e-05,0.02500000037252903,1000.0,100000000.0,0.30000001192092896
641,2,0.38176608085632324,0.23749999701976776,-0.007386873010545969,-4.5870991016272455e-05,-11966.5517578125,1533.5032958984375,1338.0108642578125,-1717.359130859375,0.0,0.0,0.0,0.0,2.499999936844688e-05,0.02500000037252903,1000.0,100000000.0,0.30000001192092896
642,2,0.3867655396461487,0.23250000178813934,-0.007363446522504091,-5.9454625443322584e-05,-10730.353515625,1229.6064453125,1648.9901123046875,-1506.223388671875,0.0,0.0,0.0,0.0,2.499999936844688e-05,0.02500000037252903,1000.0,100000000.0,0.30000001192092896
643,2,0.38676559925079346,0.23749999701976776,-0.007365405093878508,-3.8974489143583924e-05,-12179.1611328125,1161.6573486328125,1243.94873046875,-2584.672607421875,0.0,0.0,0.0,0.0,2.499999936844688e-05,0.02500000037252903,1000.0,100000000.0,0.30000001192092896
644,2,0.381766140460968,0.24250000715255737,-0.007388400379568338,-2.1766896679764614e-05,-11326.1103515625,404.9227600097656,835.1726684570312,-203.48829650878906,0.0,0.0,0.0,0.0,2.499999936844688e-05,0.02500000037252903,1000.0,100000000.0,0.30000001192092896
645,2,0.3817661702632904,0.2475000023841858,-0.007389176171272993,3.5493585528456606e-06,-11937.9111328125,137.95285034179688,254.95436096191406,-659.7651977539062,0.0,0.0,0.0,0.0,2.499999936844688e-05,0.02500000037252903,1000.0,100000000.0,0.30000001192092896
646,2,0.38676562905311584,0.24250000715255737,-0.007366727106273174,-1.7552791177877225e-05,-11843.771484375,261.6995544433594,771.9833374023438,-1535.31982421875,0.0,0.0,0.0,0.0,2.499999936844688e-05,0.02500000037252903,1000.0,100000000.0,0.30000001192092896
647,2,0.38676565885543823,0.2475000023841858,-0.007367410231381655,4.810498012375319e-06,-12401.353515625,-5.352057456970215,233.10426330566406,-1950.4989013671875,0.0,0.0,0.0,0.0,2.499999936844688e-05,0.02500000037252903,1000.0,100000000.0,0.30000001192092896
648,2,0.3817661702632904,0.2524999976158142,-0.007389208301901817,2.8872205803054385e-05,-11931.740234375,-715.6326293945312,-326.1252746582031,-650.401611328125,0.0,0.0,0.0,0.0,2.499999936844688e-05,0.02500000037252903,1000.0,100000000.0,0.30000001192092896
649,2,0.381766140460968,0.2574999928474426,-0.007388473022729158,5.420162051450461e-05,-11323.763671875,-751.6936645507812,-908.0322875976562,-196.79852294921875,0.0,0.0,0.0,0.0,2.499999936844688e-05,0.02500000037252903,1000.0,100000000.0,0.30000001192092896
650,2,0.38676565885543823,0.2524999976158142,-0.007367447018623352,2.7176049115951173e-05,-12400.376953125,-573.3065185546875,-306.7235107421875,-1948.2078857421875,0.0,0.0,0.0,0.0,2.499999936844688e-05,0.02500000037252903,1000.0,100000000.0,0.30000001192092896
651,2,0.38676562905311584,0.2574999928474426,-0.007366814184933901,4.9543836212251335e-05,-11846.7177734375,-609.3192749023438,-847.5122680664062,-1535.916015625,0.0,0.0,0.0,0.0,2.499999936844688e-05,0.02500000037252903,1000.0,100000000.0,0.30000001192092896
652,2,0.38176608085632324,0.26249998807907104,-0.007386976387351751,7.833175914129242e-05,-11950.0546875,-988.428955078125,-1414.40576171875,-1690.1546630859375,0.0,0.0,0.0,0.0,2.499999936844688e-05,0.02500000037252903,1000.0,100000000.0,0.30000001192092896
653,2,0.3817659914493561,0.26750001311302185,-0.007384717930108309,0.000101262608950492,-10377.6396484375,-571.1484375,-1845.2777099609375,-518.6015625,0.0,0.0,0.0,0.0,2.499999936844688e-05,0.02500000037252903,1000.0,100000000.0,0.30000001192092896
654,2,0.38676559925079346,0.26249998807907104,-0.007365534547716379,7.09739833837375e-05,-12179.6962890625,-616.8402709960938,-1323.3663330078125,-2580.26953125,0.0,0.0,0.0,0.0,2.499999936844688e-05,0.02500000037252903,1000.0,100000000.0,0.30000001192092896
655,2,0.3867655396461487,0.26750001311302185,-0.007363608106970787,9.146650700131431e-05,-10732.095703125,-199.6416015625,-1734.27978515625,-1502.989501953125,0.0,0.0,0.0,0.0,2.499999936844688e-05,0.02500000037252903,1000.0,100000000.0,0.30000001192092896
656,2,0.3817659020423889,0.27250000834465027,-0.007381780538707972,0.00012220484495628625,-11316.830078125,-1817.6156005859375,-2169.739013671875,-2844.87158203125,0.0,0.0,0.0,0.0,2.499999936844688e-05,0.02500000037252903,1000.0,100000000.0,0.30000001192092896
657,2,0.38176578283309937,0.2775000035762787,-0.007378207519650459,0.0001411594421369955,-9326.2978515625,-2349.632568359375,-2387.933837890625,-1363.444580078125,0.0,0.0,0.0,0.0,2.499999936844688e-05,0.02500000037252903,1000.0,100000000.0,0.30000001192092896
658,2,0.3867654502391815,0.27250000834465027,-0.007361125200986862,0.00011036065552616492,-11240.4580078125,-1338.4019775390625,-2051.00146484375,-3175.9140625,0.0,0.0,0.0,0.0,2.499999936844688e-05,0.02500000037252903,1000.0,100000000.0,0.30000001192092896
659,2,0.38676536083221436,0.2775000035762787,-0.0073581296019256115,0.0001276571856578812,-9371.998046875,-1870.375244140625,-2273.45361328125,-1785.486328125,0.0,0.0,0.0,0.0,2.499999936844688e-05,0.02500000037252903,1000.0,100000000.0,0.30000001192092896
660,2,0.3817656636238098,0.2824999988079071,-0.007374278735369444,0.0001578164374222979,-10187.8017578125,-2055.285400390625,-2516.014404296875,-3706.602294921875,0.0,0.0,0.0,0.0,2.499999936844688e-05,0.02500000037252903,1000.0,100000000.0,0.30000001192092896
661,2,0.38176554441452026,0.2874999940395355,-0.00736995181068778,0.0001721750304568559,-8213.0849609375,-2091.3271484375,-2553.751708984375,-2235.21142578125,0.0,0.0,0.0,0.0,2.499999936844688e-05,0.02500000037252903,1000.0,100000000.0,0.30000001192092896
662,2,0.3867652714252472,0.2824999988079071,-0.0073548234067857265,0.00014305385411716998,-9850.828125,-1572.815673828125,-2410.6201171875,-3546.12548828125,0.0,0.0,0.0,0.0,2.499999936844688e-05,0.02500000037252903,1000.0,100000000.0,0.30000001192092896
663,2,0.3867652118206024,0.2874999940395355,-0.007351163774728775,0.0001565498096169904,-7980.6474609375,-1608.8948974609375,-2462.1884765625,-2153.1826171875,0.0,0.0,0.0,0.0,2.499999936844688e-05,0.02500000037252903,1000.0,100000000.0,0.30000001192092896
664,2,0.3817654550075531,0.29249998927116394,-0.007365424185991287,0.00018427569011691958,-8772.3818359375,-876.9060668945312,-2537.258056640625,-4114.2216796875,0.0,0.0,0.0,0.0,2.499999936844688e-05,0.02500000037252903,1000.0,100000000.0,0.30000001192092896
665,2,0.38176536560058594,0.29750001430511475,-0.007360697723925114,0.00019411851826589555,-6979.69580078125,-459.5596923828125,-2466.603271484375,-2778.416748046875,0.0,0.0,0.0,0.0,2.499999936844688e-05,0.02500000037252903,1000.0,100000000.0,0.30000001192092896
666,2,0.38676512241363525,0.29249998927116394,-0.00734731275588274,0.00016810164379421622,-8289.8720703125,-427.6539001464844,-2454.739013671875,-3645.814208984375,0.0,0.0,0.0,0.0,2.499999936844688e-05,0.02500000037252903,1000.0,100000000.0,0.30000001192092896
667,2,0.3867650628089905,0.29750001430511475,-0.007343268487602472,0.00017770910926628858,-6559.64453125,-10.349021911621094,-2387.986328125,-2357.334228515625,0.0,0.0,0.0,0.0,2.499999936844688e-05,0.02500000037252903,1000.0,100000000.0,0.30000001192092896
668,2,0.3817652761936188,0.30250000953674316,-0.007355832494795322,0.00020217827113810927,-7067.83251953125,-324.86187744140625,-2391.137451171875,-3845.125732421875,0.0,0.0,0.0,0.0,2.499999936844688e-05,0.02500000037252903,1000.0,100000000.0,0.30000001192092896
669,2,0.381765216588974,0.3075000047683716,-0.007350870408117771,0.00020845608378294855,-5693.9345703125,-657.8709106445312,-2311.04736328125,-2821.287841796875,0.0,0.0,0.0,0.0,2.499999936844688e-05,0.02500000037252903,1000.0,100000000.0,0.30000001192092896
670,2,0.3867650032043457,0.30250000953674316,-0.007339036092162132,0.00018560810713097453,-6694.76220703125,15.362680435180664,-2319.71875,-3454.93017578125,0.0,0.0,0.0,0.0,2.499999936844688e-05,0.02500000037252903,1000.0,100000000.0,0.30000001192092896
671,2,0.3867649734020233,0.3075000047683716,-0.00733465701341629,0.00019179974333383143,-5364.1455078125,-317.7085266113281,-2250.15380859375,-2463.10546875,0.0,0.0,0.0,0.0,2.499999936844688e-05,0.02500000037252903,1000.0,100000000.0,0.30000001192092896
672,2,0.39176473021507263,0.19249999523162842,-0.007319741416722536,-0.00014434235345106572,-3734.1533203125,184.36605834960938,1933.208984375,-1139.1265869140625,0.0,0.0,0.0,0.0,2.499999936844688e-05,0.02500000037252903,1000.0,100000000.0,0.30000001192092896
673,2,0.391764760017395,0.19750000536441803,-0.007323508150875568,-0.0001382330956403166,-4872.416015625,535.6824951171875,1989.5286865234375,-1986.24658203125,0.0,0.0,0.0,0.0,2.499999936844688e-05,0.02500000037252903,1000.0,100000000.0,0.30000001192092896
674,2,0.3967645466327667,0.19249999523162842,-0.007308571133762598,-0.00013008166570216417,-3257.5302734375,-103.78014373779297,1834.7322998046875,-661.7379760742188,0.0,0.0,0.0,0.0,2.499999936844688e-05,0.02500000037252903,1000.0,100000000.0,0.30000001192092896
675,2,0.39676451683044434,0.19750000536441803,-0.007311827037483454,-0.0001240160781890154,-4398.49267578125,247.48419189453125,1920.13525390625,-1510.98779296875,0.0,0.0,0.0,0.0,2.499999936844688e-05,0.02500000037252903,1000.0,100000000.0,0.30000001192092896
676,2,0.3917647898197174,0.20250000059604645,-0.0073271216824650764,-0.0001305463520111516,-4558.82080078125,851.9157104492188,2018.060302734375,-799.620361328125,0.0,0.0,0.0,0.0,2.499999936844688e-05,0.02500000037252903,1000.0,100000000.0,0.30000001192092896
677,2,0.3917648196220398,0.20749999582767487,-0.007330599240958691,-0.00012128250091336668,-5981.84228515625,783.9497680664062,2018.8145751953125,-1859.4730224609375,0.0,0.0,0.0,0.0,2.499999936844688e-05,0.02500000037252903,1000.0,100000000.0,0.30000001192092896
678,2,0.39676451683044434,0.20250000059604645,-0.007314932066947222,-0.00011660478048725054,-4295.29736328125,495.32373046875,1961.436279296875,-612.2861938476562,0.0,0.0,0.0,0.0,2.499999936844688e-05,0.02500000037252903,1000.0,100000000.0,0.30000001192092896
679,2,0.3967645466327667,0.20749999582767487,-0.007317907176911831,-0.00010784811456687748,-5696.34521484375,427.2989807128906,1958.6004638671875,-1655.5491943359375,0.0,0.0,0.0,0.0,2.499999936844688e-05,0.02500000037252903,1000.0,100000000.0,0.30000001192092896
680,2,0.39176487922668457,0.21250000596046448,-0.007333929184824228,-0.00011036455543944612,-5612.44970703125,920.2182006835938,1973.1356201171875,-508.749755859375,0.0,0.0,0.0,0.0,2.499999936844688e-05,0.02500000037252903,1000.0,100000000.0,0.30000001192092896
681,2,0.39176493883132935,0.2175000011920929,-0.007337110582739115,-9.779263928066939e-05,-7048.818359375,653.2090454101562,1881.023193359375,-1577.809326171875,0.0,0.0,0.0,0.0,2.499999936844688e-05,0.02500000037252903,1000.0,100000000.0,0.30000001192092896
682,2,0.3967645764350891,0.21250000596046448,-0.007320748176425695,-9.770281030796468e-05,-5562.34033203125,566.9021606445312,1907.5762939453125,-643.2606201171875,0.0,0.0,0.0,0.0,2.499999936844688e-05,0.02500000037252903,1000.0,100000000.0,0.30000001192092896
683,2,0.3967646062374115,0.2175000011920929,-0.007323451340198517,-8.61688531585969e-05,-6943.2392578125,299.8591003417969,1808.2821044921875,-1672.0877685546875,0.0,0.0,0.0,0.0,2.499999936844688e-05,0.02500000037252903,1000.0,100000000.0,0.30000001192092896
684,2,0.3917649984359741,0.2224999964237213,-0.007339999079704285,-8.36544277262874e-05,-6517.919921875,993.2890625,1732.12841796875,-33.21845626831055,0.0,0.0,0.0,0.0,2.499999936844688e-05,0.02500000037252903,1000.0,100000000.0,0.30000001192092896
685,2,0.3917650580406189,0.22750000655651093,-0.00734257185831666,-6.79496442899108e-05,-7864.58154296875,1344.5732421875,1526.433349609375,-1035.98046875,0.0,0.0,0.0,0.0,2.499999936844688e-05,0.02500000037252903,1000.0,100000000.0,0.30000001192092896
686,2,0.3967646360397339,0.2224999964237213,-0.007325909100472927,-7.33004926587455e-05,-6657.22607421875,666.1387939453125,1656.595947265625,-492.97998046875,0.0,0.0,0.0,0.0,2.499999936844688e-05,0.02500000037252903,1000.0,100000000.0,0.30000001192092896
687,2,0.39676469564437866,0.22750000655651093,-0.007328095845878124,-5.909740139031783e-05,-7935.4365234375,1017.4097900390625,1452.451171875,-1445.7938232421875,0.0,0.0,0.0,0.0,2.499999936844688e-05,0.02500000037252903,1000.0,100000000.0,0.30000001192092896
688,2,0.3917650878429413,0.23250000178813934,-0.007344680838286877,-5.097376197227277e-05,-7331.47412109375,911.0951538085938,1261.0140380859375,377.3704833984375,0.0,0.0,0.0,0.0,2.499999936844688e-05,0.02500000037252903,1000.0,100000000.0,0.30000001192092896
689,2,0.39176514744758606,0.23749999701976776,-0.007346345577389002,-3.2726824429119006e-05,-8321.541015625,843.0449829101562,935.8678588867188,-359.7749328613281,0.0,0.0,0.0,0.0,2.499999936844688e-05,0.02500000037252903,1000.0,100000000.0,0.30000001192092896
690,2,0.39676472544670105,0.23250000178813934,-0.007329884916543961,-4.384232306620106e-05,-7652.56884765625,673.70751953125,1194.7491455078125,-406.22088623046875,0.0,0.0,0.0,0.0,2.499999936844688e-05,0.02500000037252903,1000.0,100000000.0,0.30000001192092896
691,2,0.39676475524902344,0.23749999701976776,-0.0073312981985509396,-2.7535326807992533e-05,-8579.3818359375,605.6962890625,883.45361328125,-1096.2464599609375,0.0,0.0,0.0,0.0,2.499999936844688e-05,0.02500000037252903,1000.0,100000000.0,0.30000001192092896
692,2,0.39176517724990845,0.24250000715255737,-0.0073474738746881485,-1.3758063687419053e-05,-7984.5390625,140.51072692871094,570.9319458007812,498.8241271972656,0.0,0.0,0.0,0.0,2.499999936844688e-05,0.02500000037252903,1000.0,100000000.0,0.30000001192092896
693,2,0.39176517724990845,0.2475000023841858,-0.007348065730184317,5.932525255047949e-06,-8353.291015625,-126.5077133178711,166.2234649658203,224.69447326660156,0.0,0.0,0.0,0.0,2.499999936844688e-05,0.02500000037252903,1000.0,100000000.0,0.30000001192092896
694,2,0.3967647850513458,0.24250000715255737,-0.007332256529480219,-1.0644902431522496e-05,-8402.8115234375,53.197513580322266,537.147216796875,-481.2384338378906,0.0,0.0,0.0,0.0,2.499999936844688e-05,0.02500000037252903,1000.0,100000000.0,0.30000001192092896
695,2,0.3967647850513458,0.2475000023841858,-0.007332758046686649,6.8289245973574e-06,-8742.01953125,-213.9222412109375,155.75572204589844,-734.3860473632812,0.0,0.0,0.0,0.0,2.499999936844688e-05,0.02500000037252903,1000.0,100000000.0,0.30000001192092896
696,2,0.39176517724990845,0.2524999976158142,-0.007348102983087301,2.562091867730487e-05,-8354.8916015625,-452.29449462890625,-239.4981231689453,221.64112854003906,0.0,0.0,0.0,0.0,2.499999936844688e-05,0.02500000037252903,1000.0,100000000.0,0.30000001192092896
697,2,0.39176517724990845,0.2574999928474426,-0.007347562350332737,4.530704245553352e-05,-7983.10009765625,-488.28973388671875,-646.2239990234375,497.9758605957031,0.0,0.0,0.0,0.0,2.499999936844688e-05,0.02500000037252903,1000.0,100000000.0,0.30000001192092896
698,2,0.3967647850513458,0.2524999976158142,-0.007332787849009037,2.4295844923472032e-05,-8748.759765625,-363.97705078125,-226.5504608154297,-744.54248046875,0.0,0.0,0.0,0.0,2.499999936844688e-05,0.02500000037252903,1000.0,100000000.0,0.30000001192092896
699,2,0.3967647850513458,0.2574999928474426,-0.007332321256399155,4.1755789425224066e-05,-8405.513671875,-400.092041015625,-609.7699584960938,-488.5296325683594,0.0,0.0,0.0,0.0,2.499999936844688e-05,0.02500000037252903,1000.0,100000000.0,0.30000001192092896
700,2,0.39176514744758606,0.26249998807907104,-0.007346477825194597,6.426640902645886e-05,-8322.8662109375,-297.8313293457031,-1015.1344604492188,-366.1996765136719,0.0,0.0,0.0,0.0,2.499999936844688e-05,0.02500000037252903,1000.0,100000000.0,0.30000001192092896
701,2,0.3917650878429413,0.26750001311302185,-0.007344846148043871,8.249901293311268e-05,-7327.94775390625,119.23812866210938,-1346.2398681640625,374.0630187988281,0.0,0.0,0.0,0.0,2.499999936844688e-05,0.02500000037252903,1000.0,100000000.0,0.30000001192092896
702,2,0.39676475524902344,0.26249998807907104,-0.007331390865147114,5.861867612111382e-05,-8596.697265625,-59.66219711303711,-959.82275390625,-1124.536865234375,0.0,0.0,0.0,0.0,2.499999936844688e-05,0.02500000037252903,1000.0,100000000.0,0.30000001192092896
703,2,0.39676472544670105,0.26750001311302185,-0.0073299952782690525,7.488446135539562e-05,-7668.705078125,357.5208435058594,-1276.6856689453125,-433.7145690917969,0.0,0.0,0.0,0.0,2.499999936844688e-05,0.02500000037252903,1000.0,100000000.0,0.30000001192092896
704,2,0.3917650580406189,0.27250000834465027,-0.007342760916799307,9.945592319127172e-05,-7864.6875,-920.41796875,-1618.774658203125,-1044.4224853515625,0.0,0.0,0.0,0.0,2.499999936844688e-05,0.02500000037252903,1000.0,100000000.0,0.30000001192092896
705,2,0.3917649984359741,0.2775000035762787,-0.0073402621783316135,0.00011513795470818877,-6518.7216796875,-1452.4720458984375,-1832.777587890625,-42.42401123046875,0.0,0.0,0.0,0.0,2.499999936844688e-05,0.02500000037252903,1000.0,100000000.0,0.30000001192092896
706,2,0.39676469564437866,0.27250000834465027,-0.007328210398554802,9.008856432046741e-05,-7967.8486328125,-595.1299438476562,-1541.2166748046875,-1492.6473388671875,0.0,0.0,0.0,0.0,2.499999936844688e-05,0.02500000037252903,1000.0,100000000.0,0.30000001192092896
707,2,0.3967646658420563,0.2775000035762787,-0.007326078601181507,0.00010423162893857807,-6702.984375,-1127.2685546875,-1753.5213623046875,-549.2911987304688,0.0,0.0,0.0,0.0,2.499999936844688e-05,0.02500000037252903,1000.0,100000000.0,0.30000001192092896
708,2,0.39176493883132935,0.2824999988079071,-0.007337498478591442,0.0001292581291636452,-7052.623046875,-1146.74169921875,-1987.5230712890625,-1585.0069580078125,0.0,0.0,0.0,0.0,2.499999936844688e-05,0.02500000037252903,1000.0,100000000.0,0.30000001192092896
709,2,0.39176487922668457,0.2874999940395355,-0.007334426511079073,0.00014181580627337098,-5639.56787109375,-1182.794921875,-2082.94970703125,-532.1925659179688,0.0,0.0,0.0,0.0,2.499999936844688e-05,0.02500000037252903,1000.0,100000000.0,0.30000001192092896
710,2,0.3967646062374115,0.2824999988079071,-0.007323726546019316,0.00011705161159625277,-7002.306640625,-804.0068359375,-1911.3819580078125,-1726.220458984375,0.0,0.0,0.0,0.0,2.499999936844688e-05,0.02500000037252903,1000.0,100000000.0,0.30000001192092896
711,2,0.3967645764350891,0.2874999940395355,-0.007321108598262072,0.00012854776286985725,-5679.9619140625,-840.0219116210938,-2014.894287109375,-741.87646484375,0.0,0.0,0.0,0.0,2.499999936844688e-05,0.02500000037252903,1000.0,100000000.0,0.30000001192092896
712,2,0.3917648196220398,0.29249998927116394,-0.007331173866987228,0.00015273790631908923,-6005.61962890625,-25.702604293823242,-2120.67578125,-1860.042236328125,0.0,0.0,0.0,0.0,2.499999936844688e-05,0.02500000037252903,1000.0,100000000.0,0.30000001192092896
713,2,0.3917647898197174,0.29750001430511475,-0.007327741011977196,0.00016202428378164768,-4620.638671875,391.4662170410156,-2100.29931640625,-829.263671875,0.0,0.0,0.0,0.0,2.499999936844688e-05,0.02500000037252903,1000.0,100000000.0,0.30000001192092896
714,2,0.3967645466327667,0.29249998927116394,-0.007318326272070408,0.00013870887050870806,-5811.6015625,309.41363525390625,-2059.44677734375,-1693.690185546875,0.0,0.0,0.0,0.0,2.499999936844688e-05,0.02500000037252903,1000.0,100000000.0,0.30000001192092896
715,2,0.3967645466327667,0.29750001430511475,-0.007315380498766899,0.00014753482537344098,-4542.90576171875,726.729248046875,-2045.333740234375,-748.4073486328125,0.0,0.0,0.0,0.0,2.499999936844688e-05,0.02500000037252903,1000.0,100000000.0,0.30000001192092896
716,2,0.391764760017395,0.30250000953674316,-0.007324088364839554,0.00016973954916466027,-4919.64404296875,334.4787292480469,-2043.8270263671875,-1992.3035888671875,0.0,0.0,0.0,0.0,2.499999936844688e-05,0.02500000037252903,1000.0,100000000.0,0.30000001192092896
717,2,0.391764760017395,0.3075000047683716,-0.007320258300751448,0.00017588469199836254,-3759.788330078125,1.5819283723831177,-1951.3226318359375,-1128.2713623046875,0.0,0.0,0.0,0.0,2.499999936844688e-05,0.02500000037252903,1000.0,100000000.0,0.30000001192092896
718,2,0.3967645466327667,0.30250000953674316,-0.007312221918255091,0.00015504038310609758,-4607.37353515625,634.1860961914062,-1977.8109130859375,-1574.3216552734375,0.0,0.0,0.0,0.0,2.499999936844688e-05,0.02500000037252903,1000.0,100000000.0,0.30000001192092896
719,2,0.3967645466327667,0.3075000047683716,-0.007308892905712128,0.00016122650413308293,-3403.17041015625,301.2179260253906,-1856.9356689453125,-677.601806640625,0.0,0.0,0.0,0.0,2.499999936844688e-05,0.02500000037252903,1000.0,100000000.0,0.30000001192092896
720,2,0.4017643332481384,0.19249999523162842,-0.007297598756849766,-0.00011587024346226826,-3206.290771484375,-359.0215148925781,1794.6717529296875,-504.95281982421875,0.0,0.0,0.0,0.0,2.499999936844688e-05,0.02500000037252903,1000.0,100000000.0,0.30000001192092896
721,2,0.40176430344581604,0.19750000536441803,-0.007300439290702343,-0.00010997531353496015,-4017.217041015625,-7.64336633682251,1826.653564453125,-1109.800537109375,0.0,0.0,0.0,0.0,2.499999936844688e-05,0.02500000037252903,1000.0,100000000.0,0.30000001192092896
722,2,0.40676411986351013,0.19750000536441803,-0.007289508823305368,-9.620352648198605e-05,-4525.95556640625,-199.01283264160156,1847.8319091796875,-1473.180419921875,0.0,0.0,0.0,0.0,2.499999936844688e-05,0.02500000037252903,1000.0,100000000.0,0.30000001192092896
723,2,0.40176430344581604,0.20250000059604645,-0.007303148508071899,-0.00010299647692590952,-3834.58935546875,184.5390167236328,1804.8109130859375,-326.7025451660156,0.0,0.0,0.0,0.0,2.499999936844688e-05,0.02500000037252903,1000.0,100000000.0,0.30000001192092896
724,2,0.40176430344581604,0.20749999582767487,-0.007305747363716364,-9.493409743299708e-05,-4815.66748046875,116.62474822998047,1729.051513671875,-1057.7513427734375,0.0,0.0,0.0,0.0,2.499999936844688e-05,0.02500000037252903,1000.0,100000000.0,0.30000001192092896
725,2,0.40676409006118774,0.20250000059604645,-0.0072920117527246475,-8.992655057227239e-05,-4552.96142578125,-50.31180191040039,1795.56689453125,-1021.9232177734375,0.0,0.0,0.0,0.0,2.499999936844688e-05,0.02500000037252903,1000.0,100000000.0,0.30000001192092896
726,2,0.40676409006118774,0.20749999582767487,-0.007294447161257267,-8.287592208944261e-05,-5460.89111328125,-118.26180267333984,1697.9698486328125,-1697.1549072265625,0.0,0.0,0.0,0.0,2.499999936844688e-05,0.02500000037252903,1000.0,100000000.0,0.30000001192092896
727,2,0.40176430344581604,0.21250000596046448,-0.007308203727006912,-8.566246106056497e-05,-4539.48779296875,247.05718994140625,1634.089111328125,-66.33364868164062,0.0,0.0,0.0,0.0,2.499999936844688e-05,0.02500000037252903,1000.0,100000000.0,0.30000001192092896
728,2,0.4017643332481384,0.2175000011920929,-0.0073105148039758205,-7.518146594520658e-05,-5630.8720703125,-19.951627731323242,1519.862060546875,-879.1896362304688,0.0,0.0,0.0,0.0,2.499999936844688e-05,0.02500000037252903,1000.0,100000000.0,0.30000001192092896
729,2,0.40676409006118774,0.21250000596046448,-0.007296697702258825,-7.464773807441816e-05,-5202.1044921875,-22.238262176513672,1589.570068359375,-765.2838745117188,0.0,0.0,0.0,0.0,2.499999936844688e-05,0.02500000037252903,1000.0,100000000.0,0.30000001192092896
730,2,0.40676409006118774,0.2175000011920929,-0.007298760581761599,-6.524199852719903e-05,-6254.080078125,-289.2642517089844,1470.368408203125,-1548.3641357421875,0.0,0.0,0.0,0.0,2.499999936844688e-05,0.02500000037252903,1000.0,100000000.0,0.30000001192092896
731,2,0.4017643332481384,0.2224999964237213,-0.007312605157494545,-6.356453377520666e-05,-5307.591796875,375.67236328125,1369.03369140625,167.92257690429688,0.0,0.0,0.0,0.0,2.499999936844688e-05,0.02500000037252903,1000.0,100000000.0,0.30000001192092896
732,2,0.4017643630504608,0.22750000655651093,-0.0073144519701600075,-5.081129711470567e-05,-6265.34228515625,727.063232421875,1181.531005859375,-545.5467529296875,0.0,0.0,0.0,0.0,2.499999936844688e-05,0.02500000037252903,1000.0,100000000.0,0.30000001192092896
733,2,0.40676409006118774,0.2224999964237213,-0.007300593424588442,-5.48439820704516e-05,-6086.95703125,141.0994415283203,1318.6470947265625,-734.3509521484375,0.0,0.0,0.0,0.0,2.499999936844688e-05,0.02500000037252903,1000.0,100000000.0,0.30000001192092896
734,2,0.40676409006118774,0.22750000655651093,-0.007302173878997564,-4.3453488615341485e-05,-7004.7138671875,492.4844665527344,1134.4678955078125,-1417.80615234375,0.0,0.0,0.0,0.0,2.499999936844688e-05,0.02500000037252903,1000.0,100000000.0,0.30000001192092896
735,2,0.4017643928527832,0.23250000178813934,-0.007315957453101873,-3.719351298059337e-05,-5959.77294921875,466.3229675292969,958.8753662109375,350.5967102050781,0.0,0.0,0.0,0.0,2.499999936844688e-05,0.02500000037252903,1000.0,100000000.0,0.30000001192092896
736,2,0.4017643928527832,0.23749999701976776,-0.007317143026739359,-2.2711321435053833e-05,-6626.9072265625,398.2896728515625,700.97412109375,-145.20220947265625,0.0,0.0,0.0,0.0,2.499999936844688e-05,0.02500000037252903,1000.0,100000000.0,0.30000001192092896
737,2,0.40676409006118774,0.23250000178813934,-0.007303453516215086,-3.133479549433105e-05,-6851.8251953125,304.046630859375,918.34033203125,-747.4412231445312,0.0,0.0,0.0,0.0,2.499999936844688e-05,0.02500000037252903,1000.0,100000000.0,0.30000001192092896
738,2,0.40676411986351013,0.23749999701976776,-0.007304452359676361,-1.8487973648007028e-05,-7487.53369140625,236.09085083007812,670.1950073242188,-1221.1953125,0.0,0.0,0.0,0.0,2.499999936844688e-05,0.02500000037252903,1000.0,100000000.0,0.30000001192092896
739,2,0.4017644226551056,0.24250000715255737,-0.0073179458267986774,-7.761152119201142e-06,-6442.298828125,-21.990922927856445,421.3629455566406,373.1600036621094,0.0,0.0,0.0,0.0,2.499999936844688e-05,0.02500000037252903,1000.0,100000000.0,0.30000001192092896
740,2,0.4017644226551056,0.2475000023841858,-0.007318364921957254,7.65693221183028e-06,-6679.91015625,-289.0049743652344,120.02970886230469,196.84963989257812,0.0,0.0,0.0,0.0,2.499999936844688e-05,0.02500000037252903,1000.0,100000000.0,0.30000001192092896
741,2,0.40676411986351013,0.24250000715255737,-0.007305125705897808,-5.2516834330162965e-06,-7395.50830078125,-79.60956573486328,402.6311950683594,-839.2022094726562,0.0,0.0,0.0,0.0,2.499999936844688e-05,0.02500000037252903,1000.0,100000000.0,0.30000001192092896
742,2,0.40676411986351013,0.2475000023841858,-0.007305472623556852,8.374096069019288e-06,-7621.29296875,-346.6754150390625,115.63800811767578,-1007.9393920898438,0.0,0.0,0.0,0.0,2.499999936844688e-05,0.02500000037252903,1000.0,100000000.0,0.30000001192092896
743,2,0.4017644226551056,0.2524999976158142,-0.007318383548408747,2.306432361365296e-05,-6688.04345703125,-287.0757141113281,-181.85205078125,182.93873596191406,0.0,0.0,0.0,0.0,2.499999936844688e-05,0.02500000037252903,1000.0,100000000.0,0.30000001192092896
744,2,0.4017644226551056,0.2574999928474426,-0.007317980285733938,3.846095205517486e-05,-6439.9609375,-323.0016174316406,-484.2630615234375,367.2605895996094,0.0,0.0,0.0,0.0,2.499999936844688e-05,0.02500000037252903,1000.0,100000000.0,0.30000001192092896
745,2,0.40676411986351013,0.2524999976158142,-0.007305476814508438,2.1986985302646644e-05,-7631.076171875,-226.63340759277344,-171.5566864013672,-1024.2431640625,0.0,0.0,0.0,0.0,2.499999936844688e-05,0.02500000037252903,1000.0,100000000.0,0.30000001192092896
746,2,0.40676411986351013,0.2574999928474426,-0.007305115461349487,3.558691605576314e-05,-7394.4306640625,-262.6377258300781,-458.9456787109375,-847.388916015625,0.0,0.0,0.0,0.0,2.499999936844688e-05,0.02500000037252903,1000.0,100000000.0,0.30000001192092896
747,2,0.4017643928527832,0.26249998807907104,-0.007317181210964918,5.336786853149533e-05,-6643.55712890625,148.84156799316406,-766.4603271484375,-181.9347686767578,0.0,0.0,0.0,0.0,2.499999936844688e-05,0.02500000037252903,1000.0,100000000.0,0.30000001192092896
748,2,0.4017643928527832,0.26750001311302185,-0.0073159863241016865,6.778498936910182e-05,-5969.10546875,566.0624389648438,-1028.5042724609375,319.4275817871094,0.0,0.0,0.0,0.0,2.499999936844688e-05,0.02500000037252903,1000.0,100000000.0,0.30000001192092896
749,2,0.40676411986351013,0.26249998807907104,-0.007304409984499216,4.8768433771329e-05,-7511.85888671875,313.029052734375,-728.0248413085938,-1269.614013671875,0.0,0.0,0.0,0.0,2.499999936844688e-05,0.02500000037252903,1000.0,100000000.0,0.30000001192092896
750,2,0.40676409006118774,0.26750001311302185,-0.0073033603839576244,6.153153663035482e-05,-6867.173828125,730.37255859375,-978.79833984375,-789.6650390625,0.0,0.0,0.0,0.0,2.499999936844688e-05,0.02500000037252903,1000.0,100000000.0,0.30000001192092896
751,2,0.4017643630504608,0.27250000834465027,-0.007314457558095455,8.132115181069821e-05,-6297.26171875,-308.00927734375,-1256.9862060546875,-606.1260375976562,0.0,0.0,0.0,0.0,2.499999936844688e-05,0.02500000037252903,1000.0,100000000.0,0.30000001192092896
752,2,0.4017643332481384,0.2775000035762787,-0.007312634959816933,9.397690882906318e-05,-5351.47509765625,-840.0787353515625,-1452.13330078125,98.4249496459961,0.0,0.0,0.0,0.0,2.499999936844688e-05,0.02500000037252903,1000.0,100000000.0,0.30000001192092896
753,2,0.40676409006118774,0.27250000834465027,-0.007302010897547007,7.354027911787853e-05,-7055.79541015625,-77.14302062988281,-1199.61474609375,-1504.8363037109375,0.0,0.0,0.0,0.0,2.499999936844688e-05,0.02500000037252903,1000.0,100000000.0,0.30000001192092896
754,2,0.40676409006118774,0.2775000035762787,-0.007300404366105795,8.479521056869999e-05,-6153.2705078125,-609.1610717773438,-1390.5943603515625,-833.4522094726562,0.0,0.0,0.0,0.0,2.499999936844688e-05,0.02500000037252903,1000.0,100000000.0,0.30000001192092896
755,2,0.4017643332481384,0.2824999988079071,-0.007310615386813879,0.00010551149898674339,-5696.177734375,-503.08990478515625,-1610.0804443359375,-947.3653564453125,0.0,0.0,0.0,0.0,2.499999936844688e-05,0.02500000037252903,1000.0,100000000.0,0.30000001192092896
756,2,0.40176430344581604,0.2874999940395355,-0.007308352272957563,0.00011592449300223961,-4692.53125,-539.0125122070312,-1730.82421875,-199.69683837890625,0.0,0.0,0.0,0.0,2.499999936844688e-05,0.02500000037252903,1000.0,100000000.0,0.30000001192092896
757,2,0.40676409006118774,0.2824999988079071,-0.007298585958778858,9.50710236793384e-05,-6354.689453125,-259.2196350097656,-1549.722900390625,-1655.74951171875,0.0,0.0,0.0,0.0,2.499999936844688e-05,0.02500000037252903,1000.0,100000000.0,0.30000001192092896
758,2,0.40676409006118774,0.2874999940395355,-0.007296512369066477,0.00010436721640871838,-5414.03173828125,-295.22540283203125,-1676.9444580078125,-954.12255859375,0.0,0.0,0.0,0.0,2.499999936844688e-05,0.02500000037252903,1000.0,100000000.0,0.30000001192092896
759,2,0.40176430344581604,0.29249998927116394,-0.007305913604795933,0.00012521020835265517,-4975.69384765625,573.8082885742188,-1824.489501953125,-1104.3720703125,0.0,0.0,0.0,0.0,2.499999936844688e-05,0.02500000037252903,1000.0,100000000.0,0.30000001192092896
760,2,0.40176430344581604,0.29750001430511475,-0.007303299847990274,0.0001333687105216086,-4225.12158203125,991.120849609375,-1890.9918212890625,-545.8126220703125,0.0,0.0,0.0,0.0,2.499999936844688e-05,0.02500000037252903,1000.0,100000000.0,0.30000001192092896
761,2,0.40676409006118774,0.29249998927116394,-0.007294201757758856,0.00011258483573328704,-5682.71044921875,739.5909423828125,-1787.589111328125,-1779.314208984375,0.0,0.0,0.0,0.0,2.499999936844688e-05,0.02500000037252903,1000.0,100000000.0,0.30000001192092896
762,2,0.40676409006118774,0.29750001430511475,-0.007291654124855995,0.00011972383072134107,-5075.5693359375,1156.94873046875,-1881.526611328125,-1327.174560546875,0.0,0.0,0.0,0.0,2.499999936844688e-05,0.02500000037252903,1000.0,100000000.0,0.30000001192092896
763,2,0.4017643332481384,0.30250000953674316,-0.007300493773072958,0.00014049505989532918,-4389.0693359375,901.96142578125,-1892.7332763671875,-1235.32666015625,0.0,0.0,0.0,0.0,2.499999936844688e-05,0.02500000037252903,1000.0,100000000.0,0.30000001192092896
764,2,0.4017643630504608,0.3075000047683716,-0.007297540083527565,0.00014659024600405246,-3570.867431640625,568.9844970703125,-1829.681884765625,-625.635009765625,0.0,0.0,0.0,0.0,2.499999936844688e-05,0.02500000037252903,1000.0,100000000.0,0.30000001192092896
765,2,0.40676411986351013,0.30250000953674316,-0.007288962136954069,0.00012618045730050653,-5098.37109375,1069.8001708984375,-1921.3330078125,-1700.8773193359375,0.0,0.0,0.0,0.0,2.499999936844688e-05,0.02500000037252903,1000.0,100000000.0,0.30000001192092896
766,2,0.411763995885849,0.19750000536441803,-0.0072805676609277725,-8.338139741681516e-05,-2177.219482421875,-320.3721618652344,1511.2982177734375,256.2686462402344,0.0,0.0,0.0,0.0,2.499999936844688e-05,0.02500000037252903,1000.0,100000000.0,0.30000001192092896
767,2,0.41676387190818787,0.19750000536441803,-0.007274985779076815,-7.218445534817874e-05,-1678.1395263671875,-322.15777587890625,1446.293701171875,634.4119873046875,0.0,0.0,0.0,0.0,2.499999936844688e-05,0.02500000037252903,1000.0,100000000.0,0.30000001192092896
768,2,0.4117639660835266,0.20250000059604645,-0.007282826583832502,-7.76671658968553e-05,-2126.25830078125,-291.6910400390625,1490.9447021484375,661.629638671875,0.0,0.0,0.0,0.0,2.499999936844688e-05,0.02500000037252903,1000.0,100000000.0,0.30000001192092896
769,2,0.4117639362812042,0.20749999582767487,-0.007284997031092644,-7.142134563764557e-05,-3115.6982421875,-359.6058349609375,1458.131591796875,-74.87798309326172,0.0,0.0,0.0,0.0,2.499999936844688e-05,0.02500000037252903,1000.0,100000000.0,0.30000001192092896
770,2,0.4167638123035431,0.20250000059604645,-0.0072769299149513245,-6.678586214547977e-05,-1613.6390380859375,-541.179931640625,1442.3726806640625,997.5215454101562,0.0,0.0,0.0,0.0,2.499999936844688e-05,0.02500000037252903,1000.0,100000000.0,0.30000001192092896
771,2,0.4167637825012207,0.20749999582767487,-0.007278652396053076,-6.0979233239777386e-05,-2565.193115234375,-609.1856079101562,1409.946044921875,289.1494445800781,0.0,0.0,0.0,0.0,2.499999936844688e-05,0.02500000037252903,1000.0,100000000.0,0.30000001192092896
772,2,0.41176390647888184,0.21250000596046448,-0.0072869835421442986,-6.41103251837194e-05,-2945.916015625,-270.6130065917969,1384.7935791015625,710.1187744140625,0.0,0.0,0.0,0.0,2.499999936844688e-05,0.02500000037252903,1000.0,100000000.0,0.30000001192092896
773,2,0.41176387667655945,0.2175000011920929,-0.007288785185664892,-5.573415182880126e-05,-3820.422119140625,-537.6820678710938,1270.9544677734375,59.14663314819336,0.0,0.0,0.0,0.0,2.499999936844688e-05,0.02500000037252903,1000.0,100000000.0,0.30000001192092896
774,2,0.4167637228965759,0.21250000596046448,-0.007280271500349045,-5.4363055824069306e-05,-2607.7255859375,-487.63555908203125,1339.0537109375,767.99853515625,0.0,0.0,0.0,0.0,2.499999936844688e-05,0.02500000037252903,1000.0,100000000.0,0.30000001192092896
775,2,0.41676369309425354,0.2175000011920929,-0.007281784899532795,-4.693719165516086e-05,-3450.668701171875,-754.6963500976562,1229.815673828125,140.38893127441406,0.0,0.0,0.0,0.0,2.499999936844688e-05,0.02500000037252903,1000.0,100000000.0,0.30000001192092896
776,2,0.41176387667655945,0.2224999964237213,-0.0072903623804450035,-4.650995833799243e-05,-3632.146728515625,-69.31005096435547,1129.7802734375,784.0081787109375,0.0,0.0,0.0,0.0,2.499999936844688e-05,0.02500000037252903,1000.0,100000000.0,0.30000001192092896
777,2,0.41176387667655945,0.22750000655651093,-0.007291692774742842,-3.643762829597108e-05,-4338.04150390625,282.0979309082031,961.2445678710938,258.89923095703125,0.0,0.0,0.0,0.0,2.499999936844688e-05,0.02500000037252903,1000.0,100000000.0,0.30000001192092896
778,2,0.41676369309425354,0.2224999964237213,-0.007283105980604887,-3.881026350427419e-05,-3392.976318359375,-243.3182373046875,1093.764892578125,674.208251953125,0.0,0.0,0.0,0.0,2.499999936844688e-05,0.02500000037252903,1000.0,100000000.0,0.30000001192092896
779,2,0.41676366329193115,0.22750000655651093,-0.007284211926162243,-2.99822222586954e-05,-4075.603759765625,108.11093139648438,930.8350219726562,166.51377868652344,0.0,0.0,0.0,0.0,2.499999936844688e-05,0.02500000037252903,1000.0,100000000.0,0.30000001192092896
780,2,0.41176387667655945,0.23250000178813934,-0.007292762398719788,-2.5760920834727585e-05,-4160.73486328125,159.38194274902344,770.5494995117188,849.652099609375,0.0,0.0,0.0,0.0,2.499999936844688e-05,0.02500000037252903,1000.0,100000000.0,0.30000001192092896
781,2,0.41176387667655945,0.23749999701976776,-0.00729359220713377,-1.4479901437880471e-05,-4638.37353515625,91.45630645751953,557.6168823242188,494.3319396972656,0.0,0.0,0.0,0.0,2.499999936844688e-05,0.02500000037252903,1000.0,100000000.0,0.30000001192092896
782,2,0.41676366329193115,0.23250000178813934,-0.007285098545253277,-2.0653487808885984e-05,-4001.88037109375,42.25140380859375,746.1243286132812,607.0159301757812,0.0,0.0,0.0,0.0,2.499999936844688e-05,0.02500000037252903,1000.0,100000000.0,0.30000001192092896
783,2,0.41676366329193115,0.23749999701976776,-0.007285786792635918,-1.0824157470779028e-05,-4461.48974609375,-25.703989028930664,539.7131958007812,264.5614013671875,0.0,0.0,0.0,0.0,2.499999936844688e-05,0.02500000037252903,1000.0,100000000.0,0.30000001192092896
784,2,0.41176387667655945,0.24250000715255737,-0.00729414913803339,-2.8734784791595303e-06,-4533.46435546875,-131.27676391601562,332.84564208984375,828.33544921875,0.0,0.0,0.0,0.0,2.499999936844688e-05,0.02500000037252903,1000.0,100000000.0,0.30000001192092896
785,2,0.41176387667655945,0.2475000023841858,-0.007294431794434786,9.058334399014711e-06,-4705.76416015625,-398.2889099121094,96.17800903320312,700.8295288085938,0.0,0.0,0.0,0.0,2.499999936844688e-05,0.02500000037252903,1000.0,100000000.0,0.30000001192092896
786,2,0.41676366329193115,0.24250000715255737,-0.007286248728632927,-7.099364438545308e-07,-4409.5166015625,-173.77662658691406,322.4944763183594,521.6353149414062,0.0,0.0,0.0,0.0,2.499999936844688e-05,0.02500000037252903,1000.0,100000000.0,0.30000001192092896
787,2,0.41676366329193115,0.2475000023841858,-0.0072864810936152935,9.689166290627327e-06,-4578.5625,-440.8876647949219,94.42090606689453,395.9506530761719,0.0,0.0,0.0,0.0,2.499999936844688e-05,0.02500000037252903,1000.0,100000000.0,0.30000001192092896
788,2,0.41176387667655945,0.2524999976158142,-0.007294421549886465,2.0977626263629645e-05,-4715.6640625,-172.4110565185547,-139.8002471923828,685.0791625976562,0.0,0.0,0.0,0.0,2.499999936844688e-05,0.02500000037252903,1000.0,100000000.0,0.30000001192092896
789,2,0.41176387667655945,0.2574999928474426,-0.007294096052646637,3.288433435955085e-05,-4535.08349609375,-208.56687927246094,-375.09613037109375,818.8027954101562,0.0,0.0,0.0,0.0,2.499999936844688e-05,0.02500000037252903,1000.0,100000000.0,0.30000001192092896
790,2,0.41676366329193115,0.2524999976158142,-0.007286458276212215,2.0080482499906793e-05,-4585.49072265625,-128.40821838378906,-132.51316833496094,385.6015319824219,0.0,0.0,0.0,0.0,2.499999936844688e-05,0.02500000037252903,1000.0,100000000.0,0.30000001192092896
791,2,0.41676366329193115,0.2574999928474426,-0.00728615652769804,3.0463952498394065e-05,-4413.48193359375,-164.43780517578125,-358.3082580566406,513.66064453125,0.0,0.0,0.0,0.0,2.499999936844688e-05,0.02500000037252903,1000.0,100000000.0,0.30000001192092896
792,2,0.41176387667655945,0.26249998807907104,-0.00729347113519907,4.443233774509281e-05,-4665.94775390625,460.989013671875,-598.4541015625,442.1724853515625,0.0,0.0,0.0,0.0,2.499999936844688e-05,0.02500000037252903,1000.0,100000000.0,0.30000001192092896
793,2,0.41176387667655945,0.26750001311302185,-0.007292546331882477,5.56216218683403e-05,-4170.82666015625,878.1142578125,-809.9558715820312,810.4258422851562,0.0,0.0,0.0,0.0,2.499999936844688e-05,0.02500000037252903,1000.0,100000000.0,0.30000001192092896
794,2,0.41676366329193115,0.26249998807907104,-0.0072855898179113865,4.0529543184675276e-05,-4486.87939453125,583.6240234375,-572.2935791015625,219.0298614501953,0.0,0.0,0.0,0.0,2.499999936844688e-05,0.02500000037252903,1000.0,100000000.0,0.30000001192092896
795,2,0.41676366329193115,0.26750001311302185,-0.007284758612513542,5.0277238187845796e-05,-4001.966064453125,1000.8853149414062,-774.5117797851562,580.4920654296875,0.0,0.0,0.0,0.0,2.499999936844688e-05,0.02500000037252903,1000.0,100000000.0,0.30000001192092896
796,2,0.41176387667655945,0.27250000834465027,-0.007291355170309544,6.616827886318788e-05,-4388.87646484375,130.07839965820312,-1002.0979614257812,161.44549560546875,0.0,0.0,0.0,0.0,2.499999936844688e-05,0.02500000037252903,1000.0,100000000.0,0.30000001192092896
797,2,0.41176387667655945,0.2775000035762787,-0.007289939094334841,7.60727925808169e-05,-3691.320068359375,-401.9783630371094,-1174.8533935546875,681.1253662109375,0.0,0.0,0.0,0.0,2.499999936844688e-05,0.02500000037252903,1000.0,100000000.0,0.30000001192092896
798,2,0.41676366329193115,0.27250000834465027,-0.007283689454197884,5.946991586824879e-05,-4120.00244140625,304.0103454589844,-957.94140625,68.20672607421875,0.0,0.0,0.0,0.0,2.499999936844688e-05,0.02500000037252903,1000.0,100000000.0,0.30000001192092896
799,2,0.41676369309425354,0.2775000035762787,-0.00728242564946413,6.810796185163781e-05,-3428.154052734375,-228.05560302734375,-1122.6346435546875,583.3225708007812,0.0,0.0,0.0,0.0,2.499999936844688e-05,0.02500000037252903,1000.0,100000000.0,0.30000001192092896
800,2,0.41176387667655945,0.2824999988079071,-0.007288316264748573,8.513145439792424e-05,-3927.41455078125,-40.27787399291992,-1324.344482421875,-70.09513092041016,0.0,0.0,0.0,0.0,2.499999936844688e-05,0.02500000037252903,1000.0,100000000.0,0.30000001192092896
801,2,0.41176390647888184,0.2874999940395355,-0.007286441046744585,9.334374044556171e-05,-3172.49169921875,-76.44432830810547,-1450.61083984375,491.8243713378906,0.0,0.0,0.0,0.0,2.499999936844688e-05,0.02500000037252903,1000.0,100000000.0,0.30000001192092896
802,2,0.41676369309425354,0.2824999988079071,-0.007280989550054073,7.602020923513919e-05,-3556.280517578125,145.98199462890625,-1266.3704833984375,-10.722681999206543,0.0,0.0,0.0,0.0,2.499999936844688e-05,0.02500000037252903,1000.0,100000000.0,0.30000001192092896
803,2,0.4167637228965759,0.2874999940395355,-0.007279336918145418,8.320617052959278e-05,-2832.72216796875,109.96793365478516,-1389.16943359375,527.6593017578125,0.0,0.0,0.0,0.0,2.499999936844688e-05,0.02500000037252903,1000.0,100000000.0,0.30000001192092896
804,2,0.4117639362812042,0.29249998927116394,-0.007284314837306738,0.00010059554915642366,-3349.22705078125,901.77294921875,-1535.7821044921875,-171.18601989746094,0.0,0.0,0.0,0.0,2.499999936844688e-05,0.02500000037252903,1000.0,100000000.0,0.30000001192092896
805,2,0.4117639660835266,0.29750001430511475,-0.007281936705112457,0.00010688687325455248,-2678.45166015625,1318.9964599609375,-1579.7913818359375,328.2462158203125,0.0,0.0,0.0,0.0,2.499999936844688e-05,0.02500000037252903,1000.0,100000000.0,0.30000001192092896
806,2,0.4167637825012207,0.29249998927116394,-0.007277498487383127,8.967399480752647e-05,-2827.6982421875,1065.40087890625,-1477.65478515625,142.11492919921875,0.0,0.0,0.0,0.0,2.499999936844688e-05,0.02500000037252903,1000.0,100000000.0,0.30000001192092896
807,2,0.4167638123035431,0.29750001430511475,-0.0072754742577672005,9.542379848426208e-05,-2240.38818359375,1482.653076171875,-1531.7655029296875,579.7439575195312,0.0,0.0,0.0,0.0,2.499999936844688e-05,0.02500000037252903,1000.0,100000000.0,0.30000001192092896
808,2,0.411763995885849,0.30250000953674316,-0.007279395591467619,0.00011274108692305163,-2732.67578125,1144.0572509765625,-1613.2684326171875,47.70827102661133,0.0,0.0,0.0,0.0,2.499999936844688e-05,0.02500000037252903,1000.0,100000000.0,0.30000001192092896
809,2,0.41676387190818787,0.30250000953674316,-0.0072731515392661095,0.0001007999453577213,-2128.09619140625,1166.6837158203125,-1572.4627685546875,455.9965515136719,0.0,0.0,0.0,0.0,2.499999936844688e-05,0.02500000037252903,1000.0,100000000.0,0.30000001192092896
810,2,0.42176368832588196,0.20250000059604645,-0.007272691465914249,-5.604955367743969e-05,256.7444763183594,-743.8024291992188,1355.6671142578125,2322.04150390625,0.0,0.0,0.0,0.0,2.499999936844688e-05,0.02500000037252903,1000.0,100000000.0,0.30000001192092896
811,2,0.4217636287212372,0.20749999582767487,-0.007274036295711994,-5.066690209787339e-05,-367.3297424316406,-811.7618408203125,1313.7847900390625,1857.2562255859375,0.0,0.0,0.0,0.0,2.499999936844688e-05,0.02500000037252903,1000.0,100000000.0,0.30000001192092896
812,2,0.42676353454589844,0.20749999582767487,-0.00727230915799737,-4.054770033690147e-05,-38.03770446777344,-962.9699096679688,1268.823974609375,2036.0318603515625,0.0,0.0,0.0,0.0,2.499999936844688e-05,0.02500000037252903,1000.0,100000000.0,0.30000001192092896
813,2,0.4217635691165924,0.21250000596046448,-0.007275338284671307,-4.4756601710105315e-05,-384.9304504394531,-683.6500244140625,1233.973388671875,2226.39013671875,0.0,0.0,0.0,0.0,2.499999936844688e-05,0.02500000037252903,1000.0,100000000.0,0.30000001192092896
814,2,0.42176353931427,0.2175000011920929,-0.007276596501469612,-3.831859794445336e-05,-1073.833984375,-950.6535034179688,1116.348876953125,1713.1136474609375,0.0,0.0,0.0,0.0,2.499999936844688e-05,0.02500000037252903,1000.0,100000000.0,0.30000001192092896
815,2,0.42676347494125366,0.21250000596046448,-0.007273385766893625,-3.5369041142985225e-05,-234.97828674316406,-864.6074829101562,1199.41845703125,2140.916259765625,0.0,0.0,0.0,0.0,2.499999936844688e-05,0.02500000037252903,1000.0,100000000.0,0.30000001192092896
816,2,0.4267634153366089,0.2175000011920929,-0.007274444680660963,-2.9985885703354143e-05,-985.366943359375,-1131.787841796875,1095.0316162109375,1582.2408447265625,0.0,0.0,0.0,0.0,2.499999936844688e-05,0.02500000037252903,1000.0,100000000.0,0.30000001192092896
817,2,0.42176350951194763,0.2224999964237213,-0.007277683820575476,-3.130344339297153e-05,-983.9901733398438,-396.780029296875,978.7120361328125,2188.976318359375,0.0,0.0,0.0,0.0,2.499999936844688e-05,0.02500000037252903,1000.0,100000000.0,0.30000001192092896
818,2,0.42176347970962524,0.22750000655651093,-0.007278576958924532,-2.37110198213486e-05,-1482.8399658203125,-45.388755798339844,821.2230834960938,1817.7401123046875,0.0,0.0,0.0,0.0,2.499999936844688e-05,0.02500000037252903,1000.0,100000000.0,0.30000001192092896
819,2,0.4267633855342865,0.2224999964237213,-0.007275336887687445,-2.410960769338999e-05,-1044.1934814453125,-518.5672607421875,964.5101928710938,1870.0933837890625,0.0,0.0,0.0,0.0,2.499999936844688e-05,0.02500000037252903,1000.0,100000000.0,0.30000001192092896
820,2,0.4267633557319641,0.22750000655651093,-0.007276037707924843,-1.7740161638357677e-05,-1523.2236328125,-167.21815490722656,807.8158569335938,1513.7119140625,0.0,0.0,0.0,0.0,2.499999936844688e-05,0.02500000037252903,1000.0,100000000.0,0.30000001192092896
821,2,0.42176347970962524,0.23250000178813934,-0.007279296405613422,-1.5712357708252966e-05,-1373.798095703125,-64.2518310546875,650.5106201171875,2220.644775390625,0.0,0.0,0.0,0.0,2.499999936844688e-05,0.02500000037252903,1000.0,100000000.0,0.30000001192092896
822,2,0.42176344990730286,0.23749999701976776,-0.007279861252754927,-7.307558462343877e-06,-1735.071044921875,-132.29000854492188,466.6297302246094,1951.8583984375,0.0,0.0,0.0,0.0,2.499999936844688e-05,0.02500000037252903,1000.0,100000000.0,0.30000001192092896
823,2,0.4267633259296417,0.23250000178813934,-0.00727661419659853,-1.1043579434044659e-05,-1472.024658203125,-154.03033447265625,638.9772338867188,1832.03466796875,0.0,0.0,0.0,0.0,2.499999936844688e-05,0.02500000037252903,1000.0,100000000.0,0.30000001192092896
824,2,0.4267633259296417,0.23749999701976776,-0.007277084980159998,-4.019868811155902e-06,-1828.2547607421875,-222.04510498046875,457.9541320800781,1566.78076171875,0.0,0.0,0.0,0.0,2.499999936844688e-05,0.02500000037252903,1000.0,100000000.0,0.30000001192092896
825,2,0.42176344990730286,0.24250000715255737,-0.007280244026333094,1.3620740446640411e-06,-1674.3668212890625,-214.5767822265625,277.0294494628906,2185.5751953125,0.0,0.0,0.0,0.0,2.499999936844688e-05,0.02500000037252903,1000.0,100000000.0,0.30000001192092896
826,2,0.42176344990730286,0.2475000023841858,-0.007280443329364061,1.0296499567630235e-05,-1820.39404296875,-481.6605224609375,81.7090835571289,2076.725341796875,0.0,0.0,0.0,0.0,2.499999936844688e-05,0.02500000037252903,1000.0,100000000.0,0.30000001192092896
827,2,0.42676329612731934,0.24250000715255737,-0.007277417927980423,3.282985062469379e-06,-1793.1500244140625,-251.641845703125,271.9757995605469,1764.1646728515625,0.0,0.0,0.0,0.0,2.499999936844688e-05,0.02500000037252903,1000.0,100000000.0,0.30000001192092896
828,2,0.42676329612731934,0.2475000023841858,-0.007277610246092081,1.086500287783565e-05,-1940.7972412109375,-518.8729248046875,81.03952026367188,1654.4024658203125,0.0,0.0,0.0,0.0,2.499999936844688e-05,0.02500000037252903,1000.0,100000000.0,0.30000001192092896
829,2,0.42176344990730286,0.2524999976158142,-0.007280413527041674,1.9230437828809954e-05,-1827.1243896484375,-88.73304748535156,-111.82540893554688,2071.783935546875,0.0,0.0,0.0,0.0,2.499999936844688e-05,0.02500000037252903,1000.0,100000000.0,0.30000001192092896
830,2,0.42176344990730286,0.2574999928474426,-0.00728013226762414,2.81638258456951e-05,-1694.34130859375,-124.8968505859375,-303.57415771484375,2170.685791015625,0.0,0.0,0.0,0.0,2.499999936844688e-05,0.02500000037252903,1000.0,100000000.0,0.30000001192092896
831,2,0.42676329612731934,0.2524999976158142,-0.007277584634721279,1.8458105842000805e-05,-1943.1302490234375,-56.66143035888672,-108.50617980957031,1658.6937255859375,0.0,0.0,0.0,0.0,2.499999936844688e-05,0.02500000037252903,1000.0,100000000.0,0.30000001192092896
832,2,0.42676329612731934,0.2574999928474426,-0.0072773173451423645,2.6062241886393167e-05,-1820.7171630859375,-92.6795425415039,-296.6778259277344,1749.6937255859375,0.0,0.0,0.0,0.0,2.499999936844688e-05,0.02500000037252903,1000.0,100000000.0,0.30000001192092896
833,2,0.42176344990730286,0.26249998807907104,-0.007279617711901665,3.6807003198191524e-05,-1771.5478515625,696.9899291992188,-486.1808776855469,1910.3736572265625,0.0,0.0,0.0,0.0,2.499999936844688e-05,0.02500000037252903,1000.0,100000000.0,0.30000001192092896
834,2,0.42176347970962524,0.26750001311302185,-0.007278868928551674,4.5159918954595923e-05,-1382.1531982421875,1113.99609375,-659.6438598632812,2200.339599609375,0.0,0.0,0.0,0.0,2.499999936844688e-05,0.02500000037252903,1000.0,100000000.0,0.30000001192092896
835,2,0.42676329612731934,0.26249998807907104,-0.007276843301951885,3.3381747925886884e-05,-1852.45849609375,794.5004272460938,-475.2559509277344,1554.905517578125,0.0,0.0,0.0,0.0,2.499999936844688e-05,0.02500000037252903,1000.0,100000000.0,0.30000001192092896
836,2,0.4267633259296417,0.26750001311302185,-0.007276162039488554,4.0416587580693886e-05,-1465.7548828125,1211.886474609375,-644.2462158203125,1842.7362060546875,0.0,0.0,0.0,0.0,2.499999936844688e-05,0.02500000037252903,1000.0,100000000.0,0.30000001192092896
837,2,0.42176347970962524,0.27250000834465027,-0.007277915719896555,5.303944999468513e-05,-1532.777099609375,463.5976867675781,-821.9893798828125,1719.54296875,0.0,0.0,0.0,0.0,2.499999936844688e-05,0.02500000037252903,1000.0,100000000.0,0.30000001192092896
838,2,0.42176350951194763,0.2775000035762787,-0.007276799529790878,6.044589463272132e-05,-990.3463745117188,-68.47191619873047,-973.1663208007812,2123.445068359375,0.0,0.0,0.0,0.0,2.499999936844688e-05,0.02500000037252903,1000.0,100000000.0,0.30000001192092896
839,2,0.4267633557319641,0.27250000834465027,-0.007275314535945654,4.704998355009593e-05,-1534.4351806640625,604.108642578125,-801.1571044921875,1460.058837890625,0.0,0.0,0.0,0.0,2.499999936844688e-05,0.02500000037252903,1000.0,100000000.0,0.30000001192092896
840,2,0.4267633855342865,0.2775000035762787,-0.00727434316650033,5.328227416612208e-05,-949.2855834960938,72.12556457519531,-945.954345703125,1895.7222900390625,0.0,0.0,0.0,0.0,2.499999936844688e-05,0.02500000037252903,1000.0,100000000.0,0.30000001192092896
841,2,0.42176353931427,0.2824999988079071,-0.007275539916008711,6.722792750224471e-05,-1162.18310546875,312.5613098144531,-1110.55419921875,1556.700439453125,0.0,0.0,0.0,0.0,2.499999936844688e-05,0.02500000037252903,1000.0,100000000.0,0.30000001192092896
842,2,0.4217635989189148,0.2874999940395355,-0.0072740912437438965,7.338512659771368e-05,-581.059326171875,276.61468505859375,-1234.195068359375,1989.6683349609375,0.0,0.0,0.0,0.0,2.499999936844688e-05,0.02500000037252903,1000.0,100000000.0,0.30000001192092896
843,2,0.4267634153366089,0.2824999988079071,-0.0072732409462332726,5.8959969464922324e-05,-962.3912963867188,469.54107666015625,-1069.9239501953125,1503.607666015625,0.0,0.0,0.0,0.0,2.499999936844688e-05,0.02500000037252903,1000.0,100000000.0,0.30000001192092896
844,2,0.42676347494125366,0.2874999940395355,-0.007271963637322187,6.408270564861596e-05,-294.9486999511719,433.653564453125,-1172.93017578125,2000.811767578125,0.0,0.0,0.0,0.0,2.499999936844688e-05,0.02500000037252903,1000.0,100000000.0,0.30000001192092896
845,2,0.4217636287212372,0.29249998927116394,-0.007272473070770502,7.905391976237297e-05,-683.6276245117188,1166.541259765625,-1335.7838134765625,1618.5604248046875,0.0,0.0,0.0,0.0,2.499999936844688e-05,0.02500000037252903,1000.0,100000000.0,0.30000001192092896
846,2,0.42176368832588196,0.29750001430511475,-0.00727068493142724,8.423419785685837e-05,-486.0230407714844,1594.3900146484375,-1415.4559326171875,1765.655517578125,0.0,0.0,0.0,0.0,2.499999936844688e-05,0.02500000037252903,1000.0,100000000.0,0.30000001192092896
847,2,0.42676353454589844,0.29249998927116394,-0.0072704460471868515,6.892085366416723e-05,-318.19287109375,1204.2745361328125,-1262.64892578125,1755.1959228515625,0.0,0.0,0.0,0.0,2.499999936844688e-05,0.02500000037252903,1000.0,100000000.0,0.30000001192092896
848,2,0.4317633807659149,0.21250000596046448,-0.007271511945873499,-2.6260382583132014e-05,-95.24932098388672,-1001.1586303710938,1098.002197265625,2078.96630859375,0.0,0.0,0.0,0.0,2.499999936844688e-05,0.02500000037252903,1000.0,100000000.0,0.30000001192092896
849,2,0.43176332116127014,0.2175000011920929,-0.007272482383996248,-2.1874773665331304e-05,-341.5138854980469,-1268.382080078125,1007.4475708007812,1895.5064697265625,0.0,0.0,0.0,0.0,2.499999936844688e-05,0.02500000037252903,1000.0,100000000.0,0.30000001192092896
850,2,0.4367632269859314,0.2175000011920929,-0.007270805537700653,-1.4136691788735334e-05,-953.1273193359375,-1324.700927734375,1021.1016235351562,1265.9287109375,0.0,0.0,0.0,0.0,2.499999936844688e-05,0.02500000037252903,1000.0,100000000.0,0.30000001192092896
851,2,0.43176326155662537,0.2224999964237213,-0.007273288909345865,-1.712340053927619e-05,-211.80796813964844,-611.3360595703125,875.7913818359375,2205.192138671875,0.0,0.0,0.0,0.0,2.499999936844688e-05,0.02500000037252903,1000.0,100000000.0,0.30000001192092896
852,2,0.431763231754303,0.22750000655651093,-0.00727390730753541,-1.2006155884591863e-05,-419.1349182128906,-259.8556213378906,702.9677124023438,2050.94189453125,0.0,0.0,0.0,0.0,2.499999936844688e-05,0.02500000037252903,1000.0,100000000.0,0.30000001192092896
853,2,0.436763197183609,0.2224999964237213,-0.007271713111549616,-1.0485196071385872e-05,-1076.30419921875,-648.6114501953125,871.49169921875,1252.4468994140625,0.0,0.0,0.0,0.0,2.499999936844688e-05,0.02500000037252903,1000.0,100000000.0,0.30000001192092896
854,2,0.4367631673812866,0.22750000655651093,-0.0072724358178675175,-6.670820312137948e-06,-1195.9244384765625,-297.1688232421875,692.0020751953125,1163.343017578125,0.0,0.0,0.0,0.0,2.499999936844688e-05,0.02500000037252903,1000.0,100000000.0,0.30000001192092896
855,2,0.4317632019519806,0.23250000178813934,-0.007274399511516094,-6.5679632825776935e-06,-237.790283203125,-247.9453887939453,549.6597900390625,2470.4912109375,0.0,0.0,0.0,0.0,2.499999936844688e-05,0.02500000037252903,1000.0,100000000.0,0.30000001192092896
856,2,0.4317631721496582,0.23749999701976776,-0.007274786941707134,-8.088436516118236e-07,-619.8873291015625,-315.8758850097656,415.9361572265625,2185.846923828125,0.0,0.0,0.0,0.0,2.499999936844688e-05,0.02500000037252903,1000.0,100000000.0,0.30000001192092896
857,2,0.43676313757896423,0.23250000178813934,-0.007272946648299694,-2.416697043372551e-06,-839.7898559570312,-350.037841796875,540.2808227539062,1802.8822021484375,0.0,0.0,0.0,0.0,2.499999936844688e-05,0.02500000037252903,1000.0,100000000.0,0.30000001192092896
858,2,0.43676310777664185,0.23749999701976776,-0.007273267023265362,2.2771625936002238e-06,-1258.8392333984375,-418.0353698730469,416.4339599609375,1490.72509765625,0.0,0.0,0.0,0.0,2.499999936844688e-05,0.02500000037252903,1000.0,100000000.0,0.30000001192092896
859,2,0.4317631721496582,0.24250000715255737,-0.0072750672698020935,5.1943111429864075e-06,-656.0703735351562,-285.8135070800781,259.5210266113281,2286.664306640625,0.0,0.0,0.0,0.0,2.499999936844688e-05,0.02500000037252903,1000.0,100000000.0,0.30000001192092896
860,2,0.4317631721496582,0.2475000023841858,-0.007275237236171961,1.1441466085670982e-05,-771.14501953125,-552.6710205078125,80.4388198852539,2200.816162109375,0.0,0.0,0.0,0.0,2.499999936844688e-05,0.02500000037252903,1000.0,100000000.0,0.30000001192092896
861,2,0.43676307797431946,0.24250000715255737,-0.007273487746715546,7.093684871506412e-06,-1461.7830810546875,-314.30889892578125,265.3490295410156,1376.5050048828125,0.0,0.0,0.0,0.0,2.499999936844688e-05,0.02500000037252903,1000.0,100000000.0,0.30000001192092896
862,2,0.43676307797431946,0.2475000023841858,-0.007273609284311533,1.2032867743982933e-05,-1570.866943359375,-581.4255981445312,87.04347229003906,1294.98193359375,0.0,0.0,0.0,0.0,2.499999936844688e-05,0.02500000037252903,1000.0,100000000.0,0.30000001192092896
863,2,0.4317631721496582,0.2524999976158142,-0.007275217212736607,1.770165908965282e-05,-784.3106079101562,-31.263145446777344,-100.62962341308594,2196.61572265625,0.0,0.0,0.0,0.0,2.499999936844688e-05,0.02500000037252903,1000.0,100000000.0,0.30000001192092896
864,2,0.4317631721496582,0.2574999928474426,-0.007274982985109091,2.3974836949491873e-05,-713.5850219726562,-67.20825958251953,-283.6637878417969,2249.3544921875,0.0,0.0,0.0,0.0,2.499999936844688e-05,0.02500000037252903,1000.0,100000000.0,0.30000001192092896
865,2,0.43676307797431946,0.2524999976158142,-0.007273597177118063,1.697034531389363e-05,-1610.3994140625,-16.115657806396484,-96.80357360839844,1258.5660400390625,0.0,0.0,0.0,0.0,2.499999936844688e-05,0.02500000037252903,1000.0,100000000.0,0.30000001192092896
866,2,0.43676307797431946,0.2574999928474426,-0.007273427210748196,2.1906065740040503e-05,-1557.5367431640625,-52.12953567504883,-286.19036865234375,1298.2384033203125,0.0,0.0,0.0,0.0,2.499999936844688e-05,0.02500000037252903,1000.0,100000000.0,0.30000001192092896
867,2,0.4317631721496582,0.26249998807907104,-0.007274564355611801,3.001903860422317e-05,-666.7499389648438,893.5165405273438,-438.92626953125,2174.09716796875,0.0,0.0,0.0,0.0,2.499999936844688e-05,0.02500000037252903,1000.0,100000000.0,0.30000001192092896
868,2,0.4317632019519806,0.26750001311302185,-0.007273959927260876,3.5834225855069235e-05,-277.0911865234375,1310.5662841796875,-566.3731689453125,2464.431884765625,0.0,0.0,0.0,0.0,2.499999936844688e-05,0.02500000037252903,1000.0,100000000.0,0.30000001192092896
869,2,0.43676310777664185,0.26249998807907104,-0.00727308914065361,2.6755280487122945e-05,-1340.498779296875,994.1786499023438,-445.0749206542969,1455.940185546875,0.0,0.0,0.0,0.0,2.499999936844688e-05,0.02500000037252903,1000.0,100000000.0,0.30000001192092896
870,2,0.43676313757896423,0.26750001311302185,-0.007272582035511732,3.151798591716215e-05,-948.7158203125,1411.3905029296875,-573.5074462890625,1748.0052490234375,0.0,0.0,0.0,0.0,2.499999936844688e-05,0.02500000037252903,1000.0,100000000.0,0.30000001192092896
871,2,0.431763231754303,0.27250000834465027,-0.007273197639733553,4.128175714868121e-05,-423.25634765625,732.4656372070312,-702.5032958984375,2036.7645263671875,0.0,0.0,0.0,0.0,2.499999936844688e-05,0.02500000037252903,1000.0,100000000.0,0.30000001192092896
872,2,0.43176326155662537,0.2775000035762787,-0.007272316608577967,4.636190351448022e-05,-39.33023452758789,200.3870086669922,-847.291259765625,2322.661376953125,0.0,0.0,0.0,0.0,2.499999936844688e-05,0.02500000037252903,1000.0,100000000.0,0.30000001192092896
873,2,0.4367631673812866,0.27250000834465027,-0.007271867245435715,3.588131949072704e-05,-1145.6746826171875,828.1893310546875,-709.788330078125,1246.0216064453125,0.0,0.0,0.0,0.0,2.499999936844688e-05,0.02500000037252903,1000.0,100000000.0,0.30000001192092896
874,2,0.436763197183609,0.2775000035762787,-0.0072709862142801285,3.984551949542947e-05,-744.2631225585938,296.146240234375,-853.96337890625,1545.0181884765625,0.0,0.0,0.0,0.0,2.499999936844688e-05,0.02500000037252903,1000.0,100000000.0,0.30000001192092896
875,2,0.43176332116127014,0.2824999988079071,-0.007271311245858669,5.1027855079155415e-05,-235.05551147460938,581.9461059570312,-949.82421875,1905.4503173828125,0.0,0.0,0.0,0.0,2.499999936844688e-05,0.02500000037252903,1000.0,100000000.0,0.30000001192092896
876,2,0.4317633807659149,0.2874999940395355,-0.007270138245075941,5.5279368098126724e-05,-101.90219116210938,556.7388305664062,-1010.0642700195312,2004.531494140625,0.0,0.0,0.0,0.0,2.499999936844688e-05,0.02500000037252903,1000.0,100000000.0,0.30000001192092896
877,2,0.4367632269859314,0.2824999988079071,-0.007269975263625383,4.3658474169205874e-05,-640.6970825195312,605.4677124023438,-954.6380615234375,1500.49267578125,0.0,0.0,0.0,0.0,2.499999936844688e-05,0.02500000037252903,1000.0,100000000.0,0.30000001192092896
878,2,0.44176313281059265,0.2224999964237213,-0.0072712041437625885,-4.552528025669744e-06,565.29736328125,-657.8818359375,645.9151000976562,2266.56689453125,0.0,0.0,0.0,0.0,2.499999936844688e-05,0.02500000037252903,1000.0,100000000.0,0.30000001192092896
879,2,0.44176310300827026,0.22750000655651093,-0.007272110786288977,-1.6271677623080905e-06,608.9530029296875,-306.4312744140625,608.02294921875,2299.068359375,0.0,0.0,0.0,0.0,2.499999936844688e-05,0.02500000037252903,1000.0,100000000.0,0.30000001192092896
880,2,0.4417630732059479,0.23250000178813934,-0.007272714748978615,1.6564858924539294e-06,1129.215087890625,-434.2708435058594,521.9389038085938,3046.068359375,0.0,0.0,0.0,0.0,2.499999936844688e-05,0.02500000037252903,1000.0,100000000.0,0.30000001192092896
881,2,0.4417630434036255,0.23749999701976776,-0.007273037452250719,5.298440555634443e-06,923.7076416015625,-502.2273864746094,387.5703125,2892.99755859375,0.0,0.0,0.0,0.0,2.499999936844688e-05,0.02500000037252903,1000.0,100000000.0,0.30000001192092896
882,2,0.4467630386352539,0.23749999701976776,-0.007274958770722151,8.212063221435528e-06,1197.24658203125,-544.9977416992188,398.4253234863281,2859.081298828125,0.0,0.0,0.0,0.0,2.499999936844688e-05,0.02500000037252903,1000.0,100000000.0,0.30000001192092896
883,2,0.4417630136013031,0.24250000715255737,-0.0072732423432171345,8.97647623787634e-06,782.6585693359375,-328.0506896972656,247.3968505859375,2760.604248046875,0.0,0.0,0.0,0.0,2.499999936844688e-05,0.02500000037252903,1000.0,100000000.0,0.30000001192092896
884,2,0.4417630136013031,0.2475000023841858,-0.0072733256965875626,1.2690587936958764e-05,798.5946044921875,-595.0902709960938,101.42787170410156,2772.480224609375,0.0,0.0,0.0,0.0,2.499999936844688e-05,0.02500000037252903,1000.0,100000000.0,0.30000001192092896
885,2,0.4467630088329315,0.24250000715255737,-0.007275215815752745,1.0831035979208536e-05,1083.7474365234375,-317.55499267578125,262.1073913574219,2740.505126953125,0.0,0.0,0.0,0.0,2.499999936844688e-05,0.02500000037252903,1000.0,100000000.0,0.30000001192092896
886,2,0.4467630088329315,0.2475000023841858,-0.007275281939655542,1.3461940397974104e-05,1140.6505126953125,-584.3211059570312,124.9264144897461,2782.87109375,0.0,0.0,0.0,0.0,2.499999936844688e-05,0.02500000037252903,1000.0,100000000.0,0.30000001192092896
887,2,0.4417630136013031,0.2524999976158142,-0.0072732949629426,1.6351332305930555e-05,715.6862182617188,-12.382528305053711,-60.8336067199707,2666.329833984375,0.0,0.0,0.0,0.0,2.499999936844688e-05,0.02500000037252903,1000.0,100000000.0,0.30000001192092896
888,2,0.4417630136013031,0.2574999928474426,-0.007273128256201744,1.9958659322583117e-05,682.109375,-48.37446212768555,-239.3831787109375,2641.38232421875,0.0,0.0,0.0,0.0,2.499999936844688e-05,0.02500000037252903,1000.0,100000000.0,0.30000001192092896
889,2,0.4467630088329315,0.2524999976158142,-0.007275190204381943,1.592476291989442e-05,968.1124877929688,-23.420793533325195,-38.28999710083008,2542.251220703125,0.0,0.0,0.0,0.0,2.499999936844688e-05,0.02500000037252903,1000.0,100000000.0,0.30000001192092896
890,2,0.4467630088329315,0.2574999928474426,-0.007274918258190155,1.8219452613266185e-05,940.6142578125,-59.20454406738281,-227.55813598632812,2521.79833984375,0.0,0.0,0.0,0.0,2.499999936844688e-05,0.02500000037252903,1000.0,100000000.0,0.30000001192092896
891,2,0.4417630434036255,0.26249998807907104,-0.007272803690284491,2.355659489694517e-05,782.6508178710938,1057.6102294921875,-417.8102722167969,2773.71826171875,0.0,0.0,0.0,0.0,2.499999936844688e-05,0.02500000037252903,1000.0,100000000.0,0.30000001192092896
892,2,0.4417630732059479,0.26750001311302185,-0.007272322196513414,2.7145131753059104e-05,824.3977661132812,1474.8953857421875,-596.1251831054688,2804.756591796875,0.0,0.0,0.0,0.0,2.499999936844688e-05,0.02500000037252903,1000.0,100000000.0,0.30000001192092896
893,2,0.4467630386352539,0.26249998807907104,-0.007274493109434843,2.046673762379214e-05,843.7598876953125,1019.3622436523438,-420.83087158203125,2491.333740234375,0.0,0.0,0.0,0.0,2.499999936844688e-05,0.02500000037252903,1000.0,100000000.0,0.30000001192092896
894,2,0.44176310300827026,0.27250000834465027,-0.007271628361195326,3.05742651107721e-05,610.4574584960938,918.947021484375,-684.7295532226562,2410.608154296875,0.0,0.0,0.0,0.0,2.499999936844688e-05,0.02500000037252903,1000.0,100000000.0,0.30000001192092896
895,2,0.44176313281059265,0.2775000035762787,-0.007270761299878359,3.384420051588677e-05,926.6510009765625,397.5625915527344,-683.6586303710938,2646.1220703125,0.0,0.0,0.0,0.0,2.499999936844688e-05,0.02500000037252903,1000.0,100000000.0,0.30000001192092896
