particle_id,object_id,pos_x,pos_y,vel_x,vel_y,stress_xx,stress_xy,stress_yx,stress_yy,strain_xx,strain_xy,strain_yx,strain_yy,volume,mass,density,youngs_modulus,poisson_ratio
0,1,0.20002685487270355,0.2224999964237213,-0.0014493162743747234,-0.00016007453086785972,-2415.703369140625,493.9862060546875,-71.69745635986328,-1534.20361328125,0.0,0.0,0.0,0.0,2.499999936844688e-05,0.02500000037252903,1000.0,100000000.0,0.30000001192092896
1,1,0.20002688467502594,0.22750000655651093,-0.0014520775293931365,-0.00014128812472335994,-2494.173828125,412.7063903808594,-70.67864990234375,-1592.7637939453125,0.0,0.0,0.0,0.0,2.499999936844688e-05,0.02500000037252903,1000.0,100000000.0,0.30000001192092896
2,1,0.1950269639492035,0.23749999701976776,-0.001462655491195619,-9.274999320041388e-05,-994.0538940429688,365.4533996582031,-42.84548568725586,-468.5890808105469,0.0,0.0,0.0,0.0,2.499999936844688e-05,0.02500000037252903,1000.0,100000000.0,0.30000001192092896
3,1,0.20002691447734833,0.23250000178813934,-0.0014550003688782454,-0.00012067423813277856,-2520.430908203125,363.69622802734375,-61.10395431518555,-1562.9305419921875,0.0,0.0,0.0,0.0,2.499999936844688e-05,0.02500000037252903,1000.0,100000000.0,0.30000001192092896
4,1,0.20002694427967072,0.23749999701976776,-0.0014580884017050266,-9.823317668633536e-05,-2658.595458984375,379.418212890625,-42.972984313964844,-1665.879638671875,0.0,0.0,0.0,0.0,2.499999936844688e-05,0.02500000037252903,1000.0,100000000.0,0.30000001192092896
5,1,0.19502697885036469,0.24250000715255737,-0.0014642167370766401,-7.317541894735768e-05,-905.2824096679688,67.72886657714844,-22.489768981933594,-393.9268493652344,0.0,0.0,0.0,0.0,2.499999936844688e-05,0.02500000037252903,1000.0,100000000.0,0.30000001192092896
6,1,0.19502699375152588,0.2475000023841858,-0.001465772744268179,-5.320836862665601e-05,-876.216552734375,129.5108642578125,-8.087502479553223,-372.2899169921875,0.0,0.0,0.0,0.0,2.499999936844688e-05,0.02500000037252903,1000.0,100000000.0,0.30000001192092896
7,1,0.2000269591808319,0.24250000715255737,-0.0014605438336730003,-7.603918493259698e-05,-2765.80712890625,70.052734375,-25.52942657470703,-1753.2156982421875,0.0,0.0,0.0,0.0,2.499999936844688e-05,0.02500000037252903,1000.0,100000000.0,0.30000001192092896
8,1,0.2000269740819931,0.2475000023841858,-0.0014623660827055573,-5.40922446816694e-05,-2816.667236328125,131.82676696777344,-8.77308464050293,-1791.135009765625,0.0,0.0,0.0,0.0,2.499999936844688e-05,0.02500000037252903,1000.0,100000000.0,0.30000001192092896
9,1,0.1950269639492035,0.2524999976158142,-0.0014669636730104685,-3.3182579500135034e-05,-923.733642578125,-202.35032653808594,7.395820140838623,-410.3817443847656,0.0,0.0,0.0,0.0,2.499999936844688e-05,0.02500000037252903,1000.0,100000000.0,0.30000001192092896
10,1,0.1950269639492035,0.2574999928474426,-0.0014677849831059575,-1.3097948794893455e-05,-1038.666748046875,-194.0233612060547,23.96006965637207,-495.9812927246094,0.0,0.0,0.0,0.0,2.499999936844688e-05,0.02500000037252903,1000.0,100000000.0,0.30000001192092896
11,1,0.20002694427967072,0.2524999976158142,-0.0014635701663792133,-3.203730739187449e-05,-2866.70458984375,-227.7542266845703,8.863430976867676,-1827.4476318359375,0.0,0.0,0.0,0.0,2.499999936844688e-05,0.02500000037252903,1000.0,100000000.0,0.30000001192092896
12,1,0.20002694427967072,0.2574999928474426,-0.0014641513116657734,-9.87424937193282e-06,-2918.9609375,-219.4219207763672,27.379989624023438,-1866.425537109375,0.0,0.0,0.0,0.0,2.499999936844688e-05,0.02500000037252903,1000.0,100000000.0,0.30000001192092896
13,1,0.1950269341468811,0.26249998807907104,-0.001468564267270267,6.8058629949518945e-06,-1265.629638671875,-685.9241943359375,47.620845794677734,-667.7093505859375,0.0,0.0,0.0,0.0,2.499999936844688e-05,0.02500000037252903,1000.0,100000000.0,0.30000001192092896
14,1,0.20002691447734833,0.26249998807907104,-0.0014641059096902609,1.2830700143240392e-05,-2921.6923828125,-749.8838500976562,47.19541549682617,-1851.4932861328125,0.0,0.0,0.0,0.0,2.499999936844688e-05,0.02500000037252903,1000.0,100000000.0,0.30000001192092896
15,1,0.20002688467502594,0.26750001311302185,-0.0014634334947913885,3.607750841183588e-05,-2931.26220703125,-846.4091796875,68.30980682373047,-1858.65185546875,0.0,0.0,0.0,0.0,2.499999936844688e-05,0.02500000037252903,1000.0,100000000.0,0.30000001192092896
16,1,0.20002682507038116,0.27250000834465027,-0.001462661661207676,5.7708854001248255e-05,-2900.685546875,-751.3190307617188,78.7344970703125,-1875.1614990234375,0.0,0.0,0.0,0.0,2.499999936844688e-05,0.02500000037252903,1000.0,100000000.0,0.30000001192092896
17,1,0.20002679526805878,0.2775000035762787,-0.0014617991400882602,7.772540993755683e-05,-2698.254150390625,-634.8882446289062,78.4699478149414,-1724.3924560546875,0.0,0.0,0.0,0.0,2.499999936844688e-05,0.02500000037252903,1000.0,100000000.0,0.30000001192092896
18,1,0.2050267606973648,0.2175000011920929,-0.0014367160620167851,-0.00019130988221149892,-3420.913330078125,906.22021484375,-101.73123931884766,-2274.844970703125,0.0,0.0,0.0,0.0,2.499999936844688e-05,0.02500000037252903,1000.0,100000000.0,0.30000001192092896
19,1,0.21002663671970367,0.21250000596046448,-0.0014207095373421907,-0.0002265844668727368,-4510.15673828125,843.8261108398438,-119.54387664794922,-3060.885009765625,0.0,0.0,0.0,0.0,2.499999936844688e-05,0.02500000037252903,1000.0,100000000.0,0.30000001192092896
20,1,0.21002668142318726,0.2175000011920929,-0.001425458351150155,-0.00020493209012784064,-4752.79541015625,905.6082763671875,-106.06828308105469,-3241.7421875,0.0,0.0,0.0,0.0,2.499999936844688e-05,0.02500000037252903,1000.0,100000000.0,0.30000001192092896
21,1,0.2050267904996872,0.2224999964237213,-0.0014400833752006292,-0.00017101390403695405,-3357.56298828125,488.3979797363281,-85.33927154541016,-2211.5791015625,0.0,0.0,0.0,0.0,2.499999936844688e-05,0.02500000037252903,1000.0,100000000.0,0.30000001192092896
22,1,0.20502683520317078,0.22750000655651093,-0.0014436643105000257,-0.00015030427312012762,-3364.679443359375,407.1126708984375,-67.20209503173828,-2216.657958984375,0.0,0.0,0.0,0.0,2.499999936844688e-05,0.02500000037252903,1000.0,100000000.0,0.30000001192092896
23,1,0.21002672612667084,0.2224999964237213,-0.001429990166798234,-0.00018254047608934343,-4950.5537109375,472.45111083984375,-90.70423889160156,-3366.489990234375,0.0,0.0,0.0,0.0,2.499999936844688e-05,0.02500000037252903,1000.0,100000000.0,0.30000001192092896
24,1,0.21002675592899323,0.22750000655651093,-0.00143430067691952,-0.00015940889716148376,-5178.40380859375,391.1766357421875,-73.44976043701172,-3536.226318359375,0.0,0.0,0.0,0.0,2.499999936844688e-05,0.02500000037252903,1000.0,100000000.0,0.30000001192092896
25,1,0.20502685010433197,0.23250000178813934,-0.0014471346512436867,-0.00012789739412255585,-3485.827880859375,279.91424560546875,-52.99922561645508,-2260.625732421875,0.0,0.0,0.0,0.0,2.499999936844688e-05,0.02500000037252903,1000.0,100000000.0,0.30000001192092896
26,1,0.20502687990665436,0.23749999701976776,-0.0014504981227219105,-0.00010379368904978037,-3876.096923828125,295.6352844238281,-42.730552673339844,-2551.2529296875,0.0,0.0,0.0,0.0,2.499999936844688e-05,0.02500000037252903,1000.0,100000000.0,0.30000001192092896
27,1,0.2100267857313156,0.23250000178813934,-0.0014381828950718045,-0.00013503499212674797,-5419.068359375,181.57151794433594,-57.96636962890625,-3680.94921875,0.0,0.0,0.0,0.0,2.499999936844688e-05,0.02500000037252903,1000.0,100000000.0,0.30000001192092896
28,1,0.2100267857313156,0.23749999701976776,-0.0014416405465453863,-0.00010941908840322867,-5788.31640625,197.29701232910156,-44.254390716552734,-3955.8388671875,0.0,0.0,0.0,0.0,2.499999936844688e-05,0.02500000037252903,1000.0,100000000.0,0.30000001192092896
29,1,0.20502687990665436,0.24250000715255737,-0.0014531579799950123,-7.955531327752396e-05,-4131.95166015625,41.407379150390625,-28.051191329956055,-2738.391845703125,0.0,0.0,0.0,0.0,2.499999936844688e-05,0.02500000037252903,1000.0,100000000.0,0.30000001192092896
30,1,0.20502687990665436,0.2475000023841858,-0.0014551137574017048,-5.518231409951113e-05,-4265.67138671875,103.18549346923828,-8.961515426635742,-2837.8330078125,0.0,0.0,0.0,0.0,2.499999936844688e-05,0.02500000037252903,1000.0,100000000.0,0.30000001192092896
31,1,0.2100268006324768,0.24250000715255737,-0.0014444044791162014,-8.317895117215812e-05,-6020.96875,5.974039554595947,-27.9841251373291,-4111.6689453125,0.0,0.0,0.0,0.0,2.499999936844688e-05,0.02500000037252903,1000.0,100000000.0,0.30000001192092896
32,1,0.2100267857313156,0.2475000023841858,-0.0014464742271229625,-5.631454769172706e-05,-6174.734375,67.75231170654297,-9.156062126159668,-4226.64111328125,0.0,0.0,0.0,0.0,2.499999936844688e-05,0.02500000037252903,1000.0,100000000.0,0.30000001192092896
33,1,0.20502687990665436,0.2524999976158142,-0.001456360099837184,-3.066294448217377e-05,-4318.79833984375,-228.2738800048828,10.65291976928711,-2874.31787109375,0.0,0.0,0.0,0.0,2.499999936844688e-05,0.02500000037252903,1000.0,100000000.0,0.30000001192092896
34,1,0.20502687990665436,0.2574999928474426,-0.0014568922342732549,-5.9970893744321074e-06,-4302.146484375,-219.95037841796875,30.791866302490234,-2861.888427734375,0.0,0.0,0.0,0.0,2.499999936844688e-05,0.02500000037252903,1000.0,100000000.0,0.30000001192092896
35,1,0.2100267857313156,0.2524999976158142,-0.0014477684162557125,-2.9268814614624716e-05,-6229.4521484375,-223.29611206054688,10.04814338684082,-4262.3896484375,0.0,0.0,0.0,0.0,2.499999936844688e-05,0.02500000037252903,1000.0,100000000.0,0.30000001192092896
36,1,0.2100267857313156,0.2574999928474426,-0.0014482822734862566,-2.0416430288605625e-06,-6201.15478515625,-214.9632568359375,29.628629684448242,-4241.26953125,0.0,0.0,0.0,0.0,2.499999936844688e-05,0.02500000037252903,1000.0,100000000.0,0.30000001192092896
37,1,0.20502685010433197,0.26249998807907104,-0.0014566989848390222,1.8847851606551558e-05,-4114.0166015625,-687.2608032226562,46.41109085083008,-2715.570068359375,0.0,0.0,0.0,0.0,2.499999936844688e-05,0.02500000037252903,1000.0,100000000.0,0.30000001192092896
38,1,0.2050267904996872,0.26750001311302185,-0.0014557807007804513,4.3871812522411346e-05,-3775.783203125,-783.785400390625,57.51069641113281,-2463.592041015625,0.0,0.0,0.0,0.0,2.499999936844688e-05,0.02500000037252903,1000.0,100000000.0,0.30000001192092896
39,1,0.21002675592899323,0.26249998807907104,-0.0014480443205684423,2.488778773113154e-05,-6054.90185546875,-603.9556884765625,46.66190719604492,-4139.97216796875,0.0,0.0,0.0,0.0,2.499999936844688e-05,0.02500000037252903,1000.0,100000000.0,0.30000001192092896
40,1,0.21002672612667084,0.26750001311302185,-0.001447054324671626,5.151943696546368e-05,-5763.53125,-700.486572265625,61.147769927978516,-3923.1435546875,0.0,0.0,0.0,0.0,2.499999936844688e-05,0.02500000037252903,1000.0,100000000.0,0.30000001192092896
41,1,0.2050267606973648,0.27250000834465027,-0.001454535173252225,6.739877426298335e-05,-3685.889892578125,-741.7703247070312,71.87171936035156,-2437.130126953125,0.0,0.0,0.0,0.0,2.499999936844688e-05,0.02500000037252903,1000.0,100000000.0,0.30000001192092896
42,1,0.20502673089504242,0.2775000035762787,-0.0014529706677421927,8.942927524913102e-05,-3709.6201171875,-618.6834106445312,89.49470520019531,-2454.595458984375,0.0,0.0,0.0,0.0,2.499999936844688e-05,0.02500000037252903,1000.0,100000000.0,0.30000001192092896
43,1,0.21002669632434845,0.27250000834465027,-0.0014454878401011229,7.712250953773037e-05,-5576.13330078125,-734.0579223632812,77.11746978759766,-3814.1943359375,0.0,0.0,0.0,0.0,2.499999936844688e-05,0.02500000037252903,1000.0,100000000.0,0.30000001192092896
44,1,0.21002663671970367,0.2775000035762787,-0.001443353365175426,0.00010169756569666788,-5389.7978515625,-610.9917602539062,94.5704116821289,-3675.313720703125,0.0,0.0,0.0,0.0,2.499999936844688e-05,0.02500000037252903,1000.0,100000000.0,0.30000001192092896
45,1,0.20502667129039764,0.2824999988079071,-0.0014515840448439121,0.0001111790697905235,-3834.350830078125,-929.2864379882812,105.55403900146484,-2564.169677734375,0.0,0.0,0.0,0.0,2.499999936844688e-05,0.02500000037252903,1000.0,100000000.0,0.30000001192092896
46,1,0.2100265771150589,0.2824999988079071,-0.0014408811694011092,0.00012567815429065377,-5256.1796875,-951.5560913085938,110.42000579833984,-3597.8857421875,0.0,0.0,0.0,0.0,2.499999936844688e-05,0.02500000037252903,1000.0,100000000.0,0.30000001192092896
47,1,0.21002651751041412,0.2874999940395355,-0.0014380618231371045,0.00014906370779499412,-5100.904296875,-949.901123046875,124.665283203125,-3482.1748046875,0.0,0.0,0.0,0.0,2.499999936844688e-05,0.02500000037252903,1000.0,100000000.0,0.30000001192092896
48,1,0.21502648293972015,0.20749999582767487,-0.001400152686983347,-0.0002654104901012033,-4913.046875,1049.0455322265625,-128.44012451171875,-3354.0263671875,0.0,0.0,0.0,0.0,2.499999936844688e-05,0.02500000037252903,1000.0,100000000.0,0.30000001192092896
49,1,0.22002631425857544,0.20250000059604645,-0.0013774033868685365,-0.00030433546635322273,-5194.462890625,870.5725708007812,-126.8326416015625,-3564.734619140625,0.0,0.0,0.0,0.0,2.499999936844688e-05,0.02500000037252903,1000.0,100000000.0,0.30000001192092896
50,1,0.22002637386322021,0.20749999582767487,-0.0013831385876983404,-0.00028209443553350866,-6041.58935546875,886.2843627929688,-127.11570739746094,-4195.67724609375,0.0,0.0,0.0,0.0,2.499999936844688e-05,0.02500000037252903,1000.0,100000000.0,0.30000001192092896
51,1,0.21502654254436493,0.21250000596046448,-0.0014053615741431713,-0.00024256172764580697,-5441.78271484375,723.6820068359375,-122.74166870117188,-3733.01123046875,0.0,0.0,0.0,0.0,2.499999936844688e-05,0.02500000037252903,1000.0,100000000.0,0.30000001192092896
52,1,0.2150265872478485,0.2175000011920929,-0.0014106363523751497,-0.0002193160617025569,-5982.48681640625,785.45458984375,-110.59840393066406,-4135.56982421875,0.0,0.0,0.0,0.0,2.499999936844688e-05,0.02500000037252903,1000.0,100000000.0,0.30000001192092896
53,1,0.2200264185667038,0.21250000596046448,-0.0013887932291254401,-0.0002585937036201358,-6756.24609375,575.1495971679688,-121.91645812988281,-4691.22509765625,0.0,0.0,0.0,0.0,2.499999936844688e-05,0.02500000037252903,1000.0,100000000.0,0.30000001192092896
54,1,0.22002646327018738,0.2175000011920929,-0.0013943668454885483,-0.00023383325606118888,-7460.40625,636.9208984375,-111.23480224609375,-5215.59521484375,0.0,0.0,0.0,0.0,2.499999936844688e-05,0.02500000037252903,1000.0006713867188,100000000.0,0.30000001192092896
55,1,0.2150266170501709,0.2224999964237213,-0.0014156346442177892,-0.00019502306531649083,-6428.38525390625,371.7121276855469,-96.22802734375,-4437.89501953125,0.0,0.0,0.0,0.0,2.499999936844688e-05,0.02500000037252903,1000.0,100000000.0,0.30000001192092896
56,1,0.2150266468524933,0.22750000655651093,-0.001420351560227573,-0.00016968203999567777,-6879.56884765625,290.4327697753906,-79.62860107421875,-4773.826171875,0.0,0.0,0.0,0.0,2.499999936844688e-05,0.02500000037252903,1000.0,100000000.0,0.30000001192092896
57,1,0.22002649307250977,0.2224999964237213,-0.0013996826019138098,-0.00020771226263605058,-8025.404296875,250.0692138671875,-98.07307434082031,-5598.37109375,0.0,0.0,0.0,0.0,2.499999936844688e-05,0.02500000037252903,1000.0023803710938,100000000.0,0.30000001192092896
58,1,0.22002650797367096,0.22750000655651093,-0.0014047360746189952,-0.0001802299520932138,-8576.6376953125,168.78880310058594,-82.42938232421875,-6009.2978515625,0.0,0.0,0.0,0.0,2.499999936844688e-05,0.02500000037252903,1000.00732421875,100000000.0,0.30000001192092896
59,1,0.21502667665481567,0.23250000178813934,-0.0014245491474866867,-0.00014312472194433212,-7218.98193359375,92.40692901611328,-62.7449836730957,-4992.81396484375,0.0,0.0,0.0,0.0,2.499999936844688e-05,0.02500000037252903,1000.0,100000000.0,0.30000001192092896
60,1,0.21502667665481567,0.23749999701976776,-0.0014282307820394635,-0.00011535146768437698,-7559.56884765625,108.126220703125,-45.57619857788086,-5246.39892578125,0.0,0.0,0.0,0.0,2.499999936844688e-05,0.02500000037252903,1000.0,100000000.0,0.30000001192092896
61,1,0.22002652287483215,0.23250000178813934,-0.0014092258643358946,-0.00015146379882935435,-8994.525390625,1.4963146448135376,-65.78077697753906,-6284.7109375,0.0,0.0,0.0,0.0,2.499999936844688e-05,0.02500000037252903,1000.00830078125,100000000.0,0.30000001192092896
62,1,0.22002652287483215,0.23749999701976776,-0.0014131556963548064,-0.00012141416664235294,-9396.115234375,17.215808868408203,-48.12654495239258,-6583.9423828125,0.0,0.0,0.0,0.0,2.499999936844688e-05,0.02500000037252903,1000.0089111328125,100000000.0,0.30000001192092896
63,1,0.21502667665481567,0.24250000715255737,-0.0014311696868389845,-8.68088100105524e-05,-7780.17578125,-36.91618728637695,-27.729345321655273,-5389.46435546875,0.0,0.0,0.0,0.0,2.499999936844688e-05,0.02500000037252903,1000.0009155273438,100000000.0,0.30000001192092896
64,1,0.21502667665481567,0.2475000023841858,-0.0014333651633933187,-5.749673073296435e-05,-7952.431640625,24.858064651489258,-9.204140663146973,-5517.4951171875,0.0,0.0,0.0,0.0,2.499999936844688e-05,0.02500000037252903,1000.0014038085938,100000000.0,0.30000001192092896
65,1,0.22002652287483215,0.24250000715255737,-0.0014162844745442271,-9.049993241205812e-05,-9656.2998046875,-82.5291976928711,-29.624046325683594,-6753.8330078125,0.0,0.0,0.0,0.0,2.499999936844688e-05,0.02500000037252903,1000.0093383789062,100000000.0,0.30000001192092896
66,1,0.22002652287483215,0.2475000023841858,-0.0014186115004122257,-5.8721070672618225e-05,-9854.6630859375,-20.75662612915039,-10.273061752319336,-6901.376953125,0.0,0.0,0.0,0.0,2.499999936844688e-05,0.02500000037252903,1000.0110473632812,100000000.0,0.30000001192092896
67,1,0.21502667665481567,0.2524999976158142,-0.001434713019989431,-2.7977899662801065e-05,-8008.02734375,-213.61842346191406,9.458505630493164,-5553.54345703125,0.0,0.0,0.0,0.0,2.499999936844688e-05,0.02500000037252903,1000.0015258789062,100000000.0,0.30000001192092896
68,1,0.2150266468524933,0.2574999928474426,-0.0014352084835991263,1.7477733535997686e-06,-7966.6005859375,-205.29574584960938,28.258602142333984,-5522.63671875,0.0,0.0,0.0,0.0,2.499999936844688e-05,0.02500000037252903,1000.00146484375,100000000.0,0.30000001192092896
69,1,0.22002650797367096,0.2524999976158142,-0.0014200147707015276,-2.6709607482189313e-05,-9920.7392578125,-202.7283172607422,9.277076721191406,-6944.6611328125,0.0,0.0,0.0,0.0,2.499999936844688e-05,0.02500000037252903,1000.0120239257812,100000000.0,0.30000001192092896
70,1,0.22002649307250977,0.2574999928474426,-0.0014204896287992597,5.534540377993835e-06,-9874.9716796875,-194.39401245117188,29.026443481445312,-6910.6015625,0.0,0.0,0.0,0.0,2.499999936844688e-05,0.02500000037252903,1000.0112915039062,100000000.0,0.30000001192092896
71,1,0.2150266170501709,0.26249998807907104,-0.001434879726730287,3.106901203864254e-05,-7846.99951171875,-539.7627563476562,46.50703048706055,-5445.0322265625,0.0,0.0,0.0,0.0,2.499999936844688e-05,0.02500000037252903,1000.0011596679688,100000000.0,0.30000001192092896
72,1,0.2150265872478485,0.26750001311302185,-0.0014337266329675913,5.998575943522155e-05,-7611.24658203125,-636.275146484375,64.20451354980469,-5269.49169921875,0.0,0.0,0.0,0.0,2.499999936844688e-05,0.02500000037252903,1000.0,100000000.0,0.30000001192092896
73,1,0.22002646327018738,0.26249998807907104,-0.0014200598234310746,3.7325011362554505e-05,-9736.0419921875,-476.92767333984375,48.21195983886719,-6820.54296875,0.0,0.0,0.0,0.0,2.499999936844688e-05,0.02500000037252903,1000.0098266601562,100000000.0,0.30000001192092896
74,1,0.220026433467865,0.26750001311302185,-0.0014187251217663288,6.866174953756854e-05,-9459.724609375,-573.412841796875,66.83391571044922,-6614.61376953125,0.0,0.0,0.0,0.0,2.499999936844688e-05,0.02500000037252903,1000.0091552734375,100000000.0,0.30000001192092896
75,1,0.21502655744552612,0.27250000834465027,-0.001431898563168943,8.793413871899247e-05,-7359.83251953125,-650.6310424804688,81.95866394042969,-5111.53125,0.0,0.0,0.0,0.0,2.499999936844688e-05,0.02500000037252903,1000.0,100000000.0,0.30000001192092896
76,1,0.21502652764320374,0.2775000035762787,-0.0014294033171609044,0.00011491488112369552,-6994.857421875,-527.5716552734375,99.7703628540039,-4839.6611328125,0.0,0.0,0.0,0.0,2.499999936844688e-05,0.02500000037252903,1000.0,100000000.0,0.30000001192092896
77,1,0.2200264036655426,0.27250000834465027,-0.001416647806763649,9.90001717582345e-05,-9142.654296875,-551.42431640625,84.82105255126953,-6408.5537109375,0.0,0.0,0.0,0.0,2.499999936844688e-05,0.02500000037252903,1000.0086669921875,100000000.0,0.30000001192092896
78,1,0.22002637386322021,0.2775000035762787,-0.0014138357946649194,0.00012834111112169921,-8686.2919921875,-428.3522644042969,102.17415618896484,-6068.47802734375,0.0,0.0,0.0,0.0,2.499999936844688e-05,0.02500000037252903,1000.0079956054688,100000000.0,0.30000001192092896
79,1,0.21502646803855896,0.2824999988079071,-0.0014264803612604737,0.00014100536645855755,-6632.96923828125,-853.525146484375,115.82105255126953,-4598.18212890625,0.0,0.0,0.0,0.0,2.499999936844688e-05,0.02500000037252903,1000.0,100000000.0,0.30000001192092896
80,1,0.21502640843391418,0.2874999940395355,-0.0014231210807338357,0.00016620503447484225,-6180.2080078125,-845.2042846679688,130.11026000976562,-4261.11181640625,0.0,0.0,0.0,0.0,2.499999936844688e-05,0.02500000037252903,1000.0,100000000.0,0.30000001192092896
81,1,0.22002632915973663,0.2824999988079071,-0.0014105895534157753,0.00015648854605387896,-8204.8662109375,-727.0552368164062,117.41253662109375,-5744.466796875,0.0,0.0,0.0,0.0,2.499999936844688e-05,0.02500000037252903,1000.0028686523438,100000000.0,0.30000001192092896
82,1,0.22002628445625305,0.2874999940395355,-0.0014069005846977234,0.00018344177806284279,-7583.23974609375,-718.7264404296875,130.53616333007812,-5281.60693359375,0.0,0.0,0.0,0.0,2.499999936844688e-05,0.02500000037252903,1000.0012817382812,100000000.0,0.30000001192092896
83,1,0.21502633392810822,0.29249998927116394,-0.0014198580756783485,0.00019113367306999862,-5730.75244140625,-1298.880859375,138.49734497070312,-3933.932861328125,0.0,0.0,0.0,0.0,2.499999936844688e-05,0.02500000037252903,1000.0,100000000.0,0.30000001192092896
84,1,0.22002620995044708,0.29249998927116394,-0.0014029942685738206,0.0002092386712320149,-6935.60498046875,-1159.8094482421875,138.35546875,-4826.7587890625,0.0,0.0,0.0,0.0,2.499999936844688e-05,0.02500000037252903,1000.0,100000000.0,0.30000001192092896
85,1,0.2200261503458023,0.29750001430511475,-0.001398869906552136,0.00023387926921714097,-6170.1728515625,-1262.9825439453125,140.86843872070312,-4256.8125,0.0,0.0,0.0,0.0,2.499999936844688e-05,0.02500000037252903,1000.0,100000000.0,0.30000001192092896
86,1,0.22502614557743073,0.19750000536441803,-0.0013530825963243842,-0.00034093117574229836,-5640.67431640625,580.646484375,-121.48387908935547,-3937.52783203125,0.0,0.0,0.0,0.0,2.499999936844688e-05,0.02500000037252903,1000.0,100000000.0,0.30000001192092896
87,1,0.2300260365009308,0.19750000536441803,-0.0013319606659933925,-0.0003572812711354345,-8479.0546875,393.0716247558594,-143.98033142089844,-6061.8525390625,0.0,0.0,0.0,0.0,2.499999936844688e-05,0.02500000037252903,1000.0022583007812,100000000.0,0.30000001192092896
88,1,0.2250262051820755,0.20250000059604645,-0.0013571399031206965,-0.0003205483953934163,-6560.55712890625,603.350830078125,-126.09719848632812,-4581.99658203125,0.0,0.0,0.0,0.0,2.499999936844688e-05,0.02500000037252903,1000.0,100000000.0,0.30000001192092896
89,1,0.2250262349843979,0.20749999582767487,-0.001362148905172944,-0.0002984337625093758,-7668.529296875,619.0643310546875,-126.02525329589844,-5406.9794921875,0.0,0.0,0.0,0.0,2.499999936844688e-05,0.02500000037252903,1000.0006713867188,100000000.0,0.30000001192092896
90,1,0.23002606630325317,0.20250000059604645,-0.0013349719811230898,-0.0003371617349330336,-9009.4716796875,334.2581481933594,-139.09030151367188,-6402.70361328125,0.0,0.0,0.0,0.0,2.499999936844688e-05,0.02500000037252903,1000.00732421875,100000000.0,0.30000001192092896
91,1,0.23002609610557556,0.20749999582767487,-0.001339253969490528,-0.00031495268922299147,-9903.5595703125,349.9722595214844,-133.1110382080078,-7068.58837890625,0.0,0.0,0.0,0.0,2.499999936844688e-05,0.02500000037252903,1000.0088500976562,100000000.0,0.30000001192092896
92,1,0.22502626478672028,0.21250000596046448,-0.001367436838336289,-0.0002743851800914854,-8566.3095703125,364.3892822265625,-121.3402328491211,-6022.2958984375,0.0,0.0,0.0,0.0,2.499999936844688e-05,0.02500000037252903,1000.0045166015625,100000000.0,0.30000001192092896
93,1,0.22502629458904266,0.2175000011920929,-0.0013730034697800875,-0.0002484025899320841,-9432.109375,426.1557312011719,-112.04347229003906,-6666.962890625,0.0,0.0,0.0,0.0,2.499999936844688e-05,0.02500000037252903,1000.0086059570312,100000000.0,0.30000001192092896
94,1,0.23002612590789795,0.21250000596046448,-0.001344171236269176,-0.0002902623382396996,-10697.3896484375,140.05079650878906,-125.27688598632812,-7593.2373046875,0.0,0.0,0.0,0.0,2.499999936844688e-05,0.02500000037252903,1000.0167846679688,100000000.0,0.30000001192092896
95,1,0.23002612590789795,0.2175000011920929,-0.0013497231993824244,-0.0002630905946716666,-11615.0458984375,201.8135223388672,-115.58859252929688,-8276.5537109375,0.0,0.0,0.0,0.0,2.499999936844688e-05,0.02500000037252903,1000.0242309570312,100000000.0,0.30000001192092896
96,1,0.22502630949020386,0.2224999964237213,-0.001378432847559452,-0.00022069837723392993,-10111.6044921875,90.1244888305664,-100.00846099853516,-7125.951171875,0.0,0.0,0.0,0.0,2.499999936844688e-05,0.02500000037252903,1000.0122680664062,100000000.0,0.30000001192092896
97,1,0.22502630949020386,0.22750000655651093,-0.001383720664307475,-0.00019127174164168537,-10762.484375,8.855725288391113,-85.236083984375,-7610.9638671875,0.0,0.0,0.0,0.0,2.499999936844688e-05,0.02500000037252903,1000.0194091796875,100000000.0,0.30000001192092896
98,1,0.23002612590789795,0.2224999964237213,-0.0013552596792578697,-0.00023383951338473707,-12359.6591796875,-83.12064361572266,-103.47002410888672,-8774.9296875,0.0,0.0,0.0,0.0,2.499999936844688e-05,0.02500000037252903,1000.0269165039062,100000000.0,0.30000001192092896
99,1,0.23002612590789795,0.22750000655651093,-0.001360776019282639,-0.00020250830857548863,-13119.455078125,-164.38323974609375,-88.92170715332031,-9340.0830078125,0.0,0.0,0.0,0.0,2.499999936844688e-05,0.02500000037252903,1000.0315551757812,100000000.0,0.30000001192092896
100,1,0.22502630949020386,0.23250000178813934,-0.0013884599320590496,-0.00016035482985898852,-11250.36328125,-112.45025634765625,-68.76923370361328,-7933.36669921875,0.0,0.0,0.0,0.0,2.499999936844688e-05,0.02500000037252903,1000.0234985351562,100000000.0,0.30000001192092896
101,1,0.22502630949020386,0.23749999701976776,-0.001392654376104474,-0.00012794806389138103,-11711.044921875,-96.73201751708984,-50.608070373535156,-8276.6591796875,0.0,0.0,0.0,0.0,2.499999936844688e-05,0.02500000037252903,1000.025146484375,100000000.0,0.30000001192092896
102,1,0.23002611100673676,0.23250000178813934,-0.0013657670933753252,-0.00016944773960858583,-13695.1044921875,-235.6766815185547,-72.35659790039062,-9722.27734375,0.0,0.0,0.0,0.0,2.499999936844688e-05,0.02500000037252903,1000.03466796875,100000000.0,0.30000001192092896
103,1,0.23002611100673676,0.23749999701976776,-0.0013702362775802612,-0.00013465834490489215,-14243.2158203125,-219.95904541015625,-53.775299072265625,-10130.04296875,0.0,0.0,0.0,0.0,2.499999936844688e-05,0.02500000037252903,1000.0369262695312,100000000.0,0.30000001192092896
104,1,0.22502630949020386,0.24250000715255737,-0.001395992236211896,-9.454478276893497e-05,-12007.1865234375,-137.9427490234375,-31.439865112304688,-8469.671875,0.0,0.0,0.0,0.0,2.499999936844688e-05,0.02500000037252903,1000.0264282226562,100000000.0,0.30000001192092896
105,1,0.22502630949020386,0.2475000023841858,-0.0013984733959659934,-6.014499376760796e-05,-12230.5390625,-76.17207336425781,-11.264517784118652,-8635.5966796875,0.0,0.0,0.0,0.0,2.499999936844688e-05,0.02500000037252903,1000.0272827148438,100000000.0,0.30000001192092896
106,1,0.23002608120441437,0.24250000715255737,-0.0013737932313233614,-9.872451482806355e-05,-14598.6767578125,-197.662353515625,-33.86307907104492,-10364.1416015625,0.0,0.0,0.0,0.0,2.499999936844688e-05,0.02500000037252903,1000.0386352539062,100000000.0,0.30000001192092896
107,1,0.23002608120441437,0.2475000023841858,-0.0013764374889433384,-6.164631486171857e-05,-14865.1748046875,-135.9088897705078,-12.62021541595459,-10562.234375,0.0,0.0,0.0,0.0,2.499999936844688e-05,0.02500000037252903,1000.0393676757812,100000000.0,0.30000001192092896
108,1,0.22502627968788147,0.2524999976158142,-0.001399938017129898,-2.5475170332356356e-05,-12305.958984375,-190.46914672851562,9.173766136169434,-8684.8603515625,0.0,0.0,0.0,0.0,2.499999936844688e-05,0.02500000037252903,1000.0276489257812,100000000.0,0.30000001192092896
109,1,0.22502627968788147,0.2574999928474426,-0.0014003814430907369,9.464776667300612e-06,-12257.5732421875,-182.1439971923828,29.874998092651367,-8648.849609375,0.0,0.0,0.0,0.0,2.499999936844688e-05,0.02500000037252903,1000.0274658203125,100000000.0,0.30000001192092896
110,1,0.23002606630325317,0.2524999976158142,-0.0013779666041955352,-2.4255616153823212e-05,-14956.447265625,-177.54714965820312,9.002778053283691,-10622.2138671875,0.0,0.0,0.0,0.0,2.499999936844688e-05,0.02500000037252903,1000.0396728515625,100000000.0,0.30000001192092896
111,1,0.23002605140209198,0.2574999928474426,-0.0013783760368824005,1.344766224065097e-05,-14899.16015625,-169.22320556640625,31.005746841430664,-10579.7216796875,0.0,0.0,0.0,0.0,2.499999936844688e-05,0.02500000037252903,1000.0394897460938,100000000.0,0.30000001192092896
112,1,0.22502624988555908,0.26249998807907104,-0.0013998337090015411,4.3884687329409644e-05,-12103.6298828125,-399.5304260253906,50.0616569519043,-8549.728515625,0.0,0.0,0.0,0.0,2.499999936844688e-05,0.02500000037252903,1000.02685546875,100000000.0,0.30000001192092896
113,1,0.22502624988555908,0.26750001311302185,-0.0013982945820316672,7.778455619700253e-05,-11793.7119140625,-496.0447082519531,69.73324584960938,-8318.6640625,0.0,0.0,0.0,0.0,2.499999936844688e-05,0.02500000037252903,1000.0256958007812,100000000.0,0.30000001192092896
114,1,0.2300260215997696,0.26249998807907104,-0.0013777039712294936,5.055618748883717e-05,-14713.591796875,-316.3703918457031,52.34022903442383,-10458.47265625,0.0,0.0,0.0,0.0,2.499999936844688e-05,0.02500000037252903,1000.0386962890625,100000000.0,0.30000001192092896
115,1,0.2300260215997696,0.26750001311302185,-0.0013759495923295617,8.706995140528306e-05,-14341.9150390625,-412.88616943359375,73.00639343261719,-10182.091796875,0.0,0.0,0.0,0.0,2.499999936844688e-05,0.02500000037252903,1000.0374145507812,100000000.0,0.30000001192092896
116,1,0.2250262200832367,0.27250000834465027,-0.0013959853677079082,0.00011051771434722468,-11427.0166015625,-418.9932556152344,88.12975311279297,-8079.40869140625,0.0,0.0,0.0,0.0,2.499999936844688e-05,0.02500000037252903,1000.0241088867188,100000000.0,0.30000001192092896
117,1,0.2250261902809143,0.2775000035762787,-0.0013929137494415045,0.00014208510401658714,-10891.0185546875,-295.93145751953125,105.25177001953125,-7680.4716796875,0.0,0.0,0.0,0.0,2.499999936844688e-05,0.02500000037252903,1000.0206298828125,100000000.0,0.30000001192092896
118,1,0.2300260066986084,0.27250000834465027,-0.0013733990490436554,0.00012221680663060397,-13904.0107421875,-275.98626708984375,92.08482360839844,-9894.4482421875,0.0,0.0,0.0,0.0,2.499999936844688e-05,0.02500000037252903,1000.0365600585938,100000000.0,0.30000001192092896
119,1,0.230025976896286,0.2775000035762787,-0.0013700594427064061,0.0001559976808493957,-13272.0087890625,-152.9341583251953,109.5762939453125,-9423.2001953125,0.0,0.0,0.0,0.0,2.499999936844688e-05,0.02500000037252903,1000.0330200195312,100000000.0,0.30000001192092896
120,1,0.22502614557743073,0.2824999988079071,-0.0013894829899072647,0.00017209385987371206,-10305.9677734375,-537.780517578125,119.86424255371094,-7287.60400390625,0.0,0.0,0.0,0.0,2.499999936844688e-05,0.02500000037252903,1000.015380859375,100000000.0,0.30000001192092896
121,1,0.22502611577510834,0.2874999940395355,-0.0013856845907866955,0.0002005432907026261,-9527.453125,-529.4612426757812,131.96762084960938,-6707.82373046875,0.0,0.0,0.0,0.0,2.499999936844688e-05,0.02500000037252903,1000.0089111328125,100000000.0,0.30000001192092896
122,1,0.230025976896286,0.2824999988079071,-0.0013664310099557042,0.0001878542243503034,-12628.9140625,-336.0113830566406,124.71446228027344,-8996.1123046875,0.0,0.0,0.0,0.0,2.499999936844688e-05,0.02500000037252903,1000.028076171875,100000000.0,0.30000001192092896
123,1,0.23002593219280243,0.2874999940395355,-0.0013625053688883781,0.00021778528753202409,-11802.861328125,-327.6845397949219,137.4983673095703,-8380.6494140625,0.0,0.0,0.0,0.0,2.499999936844688e-05,0.02500000037252903,1000.0248413085938,100000000.0,0.30000001192092896
124,1,0.22502605617046356,0.29249998927116394,-0.001381969777867198,0.0002271059202030301,-8681.8681640625,-907.668701171875,139.098876953125,-6122.87353515625,0.0,0.0,0.0,0.0,2.499999936844688e-05,0.02500000037252903,1000.0044555664062,100000000.0,0.30000001192092896
125,1,0.22502601146697998,0.29750001430511475,-0.001378338085487485,0.0002517818647902459,-7618.10400390625,-1004.17333984375,141.26104736328125,-5331.07763671875,0.0,0.0,0.0,0.0,2.499999936844688e-05,0.02500000037252903,1000.0,100000000.0,0.30000001192092896
126,1,0.23002590239048004,0.29249998927116394,-0.0013589812442660332,0.00024522480089217424,-11084.962890625,-652.5974731445312,148.01394653320312,-7906.44091796875,0.0,0.0,0.0,0.0,2.499999936844688e-05,0.02500000037252903,1000.019287109375,100000000.0,0.30000001192092896
127,1,0.23002587258815765,0.29750001430511475,-0.0013558586360886693,0.00027017254615202546,-10275.9482421875,-749.107177734375,156.25949096679688,-7303.60009765625,0.0,0.0,0.0,0.0,2.499999936844688e-05,0.02500000037252903,1000.0099487304688,100000000.0,0.30000001192092896
128,1,0.2250259518623352,0.30250000953674316,-0.0013754706596955657,0.0002746656828094274,-6632.82568359375,-898.8095092773438,138.18453979492188,-4631.22900390625,0.0,0.0,0.0,0.0,2.499999936844688e-05,0.02500000037252903,1000.0,100000000.0,0.30000001192092896
129,1,0.23002582788467407,0.30250000953674316,-0.0013538330094888806,0.000292913377052173,-9764.7353515625,-679.4791259765625,162.96868896484375,-6972.029296875,0.0,0.0,0.0,0.0,2.499999936844688e-05,0.02500000037252903,1000.0086059570312,100000000.0,0.30000001192092896
130,1,0.23502586781978607,0.19750000536441803,-0.0013002342311665416,-0.00037811847869306803,-10758.7578125,399.0133972167969,-165.0556640625,-7736.30712890625,0.0,0.0,0.0,0.0,2.499999936844688e-05,0.02500000037252903,1000.0203247070312,100000000.0,0.30000001192092896
131,1,0.24002563953399658,0.19249999523162842,-0.0012620121706277132,-0.00042115175165235996,-10630.4140625,462.00250244140625,-157.19036865234375,-7617.2939453125,0.0,0.0,0.0,0.0,2.499999936844688e-05,0.02500000037252903,1000.0203247070312,100000000.0,0.30000001192092896
132,1,0.24002566933631897,0.19750000536441803,-0.0012664005625993013,-0.00039928118349052966,-11317.015625,380.75994873046875,-153.31387329101562,-8129.0595703125,0.0,0.0,0.0,0.0,2.499999936844688e-05,0.02500000037252903,1000.0245971679688,100000000.0,0.30000001192092896
133,1,0.23502588272094727,0.20250000059604645,-0.001304172445088625,-0.0003563807695172727,-10957.4072265625,145.05572509765625,-151.13284301757812,-7835.67431640625,0.0,0.0,0.0,0.0,2.499999936844688e-05,0.02500000037252903,1000.02197265625,100000000.0,0.30000001192092896
134,1,0.23502589762210846,0.20749999582767487,-0.0013089891290292144,-0.00033285978133790195,-11650.724609375,160.7714385986328,-139.78457641601562,-8352.3017578125,0.0,0.0,0.0,0.0,2.499999936844688e-05,0.02500000037252903,1000.025146484375,100000000.0,0.30000001192092896
135,1,0.24002568423748016,0.20250000059604645,-0.00127127964515239,-0.00037589945713989437,-12113.6875,-54.92488098144531,-147.76707458496094,-8679.2216796875,0.0,0.0,0.0,0.0,2.499999936844688e-05,0.02500000037252903,1000.0272827148438,100000000.0,0.30000001192092896
136,1,0.24002568423748016,0.20749999582767487,-0.0012766530271619558,-0.000351007649442181,-13163.595703125,-39.2097053527832,-140.54832458496094,-9460.9111328125,0.0,0.0,0.0,0.0,2.499999936844688e-05,0.02500000037252903,1000.0338745117188,100000000.0,0.30000001192092896
137,1,0.23502591252326965,0.21250000596046448,-0.0013142907992005348,-0.0003068755322601646,-12370.5107421875,-104.13865661621094,-129.09608459472656,-8821.5341796875,0.0,0.0,0.0,0.0,2.499999936844688e-05,0.02500000037252903,1000.0286865234375,100000000.0,0.30000001192092896
138,1,0.23502588272094727,0.2175000011920929,-0.0013200772227719426,-0.000278427847661078,-13339.8564453125,-42.38166809082031,-119.06866455078125,-9543.4404296875,0.0,0.0,0.0,0.0,2.499999936844688e-05,0.02500000037252903,1000.0340576171875,100000000.0,0.30000001192092896
139,1,0.24002568423748016,0.21250000596046448,-0.0012823460856452584,-0.00032370537519454956,-14149.1484375,-362.71051025390625,-132.30905151367188,-10128.6162109375,0.0,0.0,0.0,0.0,2.499999936844688e-05,0.02500000037252903,1000.038818359375,100000000.0,0.30000001192092896
140,1,0.24002565443515778,0.2175000011920929,-0.0012883584713563323,-0.00029399251798167825,-15290.7099609375,-300.95703125,-123.04949188232422,-10978.8232421875,0.0,0.0,0.0,0.0,2.499999936844688e-05,0.02500000037252903,1000.0440063476562,100000000.0,0.30000001192092896
141,1,0.23502588272094727,0.2224999964237213,-0.001325877383351326,-0.0002476087538525462,-14151.015625,-297.70025634765625,-106.88835906982422,-10083.5576171875,0.0,0.0,0.0,0.0,2.499999936844688e-05,0.02500000037252903,1000.0382690429688,100000000.0,0.30000001192092896
142,1,0.23502586781978607,0.22750000655651093,-0.0013316874392330647,-0.0002144171594409272,-15017.748046875,-378.9511413574219,-92.55599212646484,-10728.76953125,0.0,0.0,0.0,0.0,2.499999936844688e-05,0.02500000037252903,1000.04150390625,100000000.0,0.30000001192092896
143,1,0.2400256246328354,0.2224999964237213,-0.0012944199843332171,-0.00026161904679611325,-16255.109375,-529.3907470703125,-111.40322875976562,-11625.6181640625,0.0,0.0,0.0,0.0,2.499999936844688e-05,0.02500000037252903,1000.0457153320312,100000000.0,0.30000001192092896
144,1,0.240025594830513,0.22750000655651093,-0.0013005263172090054,-0.00022658401576336473,-17284.326171875,-610.6350708007812,-97.3703842163086,-12391.1220703125,0.0,0.0,0.0,0.0,2.499999936844688e-05,0.02500000037252903,1000.0471801757812,100000000.0,0.30000001192092896
145,1,0.23502583801746368,0.23250000178813934,-0.0013369849184527993,-0.0001791988470358774,-15676.7841796875,-392.092041015625,-75.88216400146484,-11164.5615234375,0.0,0.0,0.0,0.0,2.499999936844688e-05,0.02500000037252903,1000.0445556640625,100000000.0,0.30000001192092896
146,1,0.2350258231163025,0.23749999701976776,-0.0013417728478088975,-0.00014195434050634503,-16310.3671875,-376.3756408691406,-56.86717224121094,-11636.1484375,0.0,0.0,0.0,0.0,2.499999936844688e-05,0.02500000037252903,1000.0454711914062,100000000.0,0.30000001192092896
147,1,0.2400255650281906,0.23250000178813934,-0.0013061383506283164,-0.0001892031723400578,-18074.513671875,-562.38330078125,-80.5932388305664,-12916.6494140625,0.0,0.0,0.0,0.0,2.499999936844688e-05,0.02500000037252903,1000.0481567382812,100000000.0,0.30000001192092896
148,1,0.24002553522586823,0.23749999701976776,-0.001311259577050805,-0.00014947699673939496,-18840.681640625,-546.6716918945312,-61.07162857055664,-13486.958984375,0.0,0.0,0.0,0.0,2.499999936844688e-05,0.02500000037252903,1000.04931640625,100000000.0,0.30000001192092896
149,1,0.2350258082151413,0.24250000715255737,-0.001345586497336626,-0.00010335862316424027,-16719.16796875,-273.77618408203125,-36.19083786010742,-11905.18359375,0.0,0.0,0.0,0.0,2.499999936844688e-05,0.02500000037252903,1000.0460815429688,100000000.0,0.30000001192092896
150,1,0.2350257784128189,0.2475000023841858,-0.0013484254013746977,-6.341169500956312e-05,-17027.990234375,-212.01507568359375,-13.853431701660156,-12134.5546875,0.0,0.0,0.0,0.0,2.499999936844688e-05,0.02500000037252903,1000.0465698242188,100000000.0,0.30000001192092896
151,1,0.24002550542354584,0.24250000715255737,-0.0013153437757864594,-0.0001081702794181183,-19341.6640625,-356.9702453613281,-39.4596061706543,-13817.576171875,0.0,0.0,0.0,0.0,2.499999936844688e-05,0.02500000037252903,1000.0499267578125,100000000.0,0.30000001192092896
152,1,0.24002549052238464,0.2475000023841858,-0.0013183903647586703,-6.52830203762278e-05,-19718.755859375,-295.22332763671875,-15.756974220275879,-14099.0263671875,0.0,0.0,0.0,0.0,2.499999936844688e-05,0.02500000037252903,1000.0502319335938,100000000.0,0.30000001192092896
153,1,0.2350257784128189,0.2524999976158142,-0.001350032864138484,-2.3091371986083686e-05,-17134.169921875,-161.44284057617188,8.997435569763184,-12203.6044921875,0.0,0.0,0.0,0.0,2.499999936844688e-05,0.02500000037252903,1000.0467529296875,100000000.0,0.30000001192092896
154,1,0.23502574861049652,0.2574999928474426,-0.001350404811091721,1.7602444131625816e-05,-17069.708984375,-153.1198272705078,32.36159133911133,-12155.22265625,0.0,0.0,0.0,0.0,2.499999936844688e-05,0.02500000037252903,1000.046630859375,100000000.0,0.30000001192092896
155,1,0.24002547562122345,0.2524999976158142,-0.0013200825778767467,-2.1953559553367086e-05,-19850.15234375,-144.05050659179688,8.624979019165039,-14184.6298828125,0.0,0.0,0.0,0.0,2.499999936844688e-05,0.02500000037252903,1000.0504150390625,100000000.0,0.30000001192092896
156,1,0.24002546072006226,0.2574999928474426,-0.0013204164570197463,2.1818186723976396e-05,-19771.74609375,-135.72018432617188,33.68619918823242,-14126.1640625,0.0,0.0,0.0,0.0,2.499999936844688e-05,0.02500000037252903,1000.0503540039062,100000000.0,0.30000001192092896
157,1,0.23502574861049652,0.26249998807907104,-0.0013495850143954158,5.7594061217969283e-05,-16855.724609375,-210.08628845214844,54.92434310913086,-12015.802734375,0.0,0.0,0.0,0.0,2.499999936844688e-05,0.02500000037252903,1000.0462646484375,100000000.0,0.30000001192092896
158,1,0.23502573370933533,0.26750001311302185,-0.0013475737068802118,9.68833701335825e-05,-16424.798828125,-306.5782775878906,76.68511962890625,-11695.177734375,0.0,0.0,0.0,0.0,2.499999936844688e-05,0.02500000037252903,1000.0457153320312,100000000.0,0.30000001192092896
159,1,0.24002546072006226,0.26249998807907104,-0.0013194425264373422,6.476876296801493e-05,-19508.65625,-94.17066955566406,57.747833251953125,-13953.0595703125,0.0,0.0,0.0,0.0,2.499999936844688e-05,0.02500000037252903,1000.0499877929688,100000000.0,0.30000001192092896
160,1,0.24002546072006226,0.26750001311302185,-0.0013171607861295342,0.00010689808550523594,-18983.7265625,-190.65821838378906,80.80987548828125,-13562.5947265625,0.0,0.0,0.0,0.0,2.499999936844688e-05,0.02500000037252903,1000.049072265625,100000000.0,0.30000001192092896
161,1,0.23502573370933533,0.27250000834465027,-0.0013447083765640855,0.0001345510099781677,-15922.1435546875,-96.54353332519531,96.53290557861328,-11364.9794921875,0.0,0.0,0.0,0.0,2.499999936844688e-05,0.02500000037252903,1000.044921875,100000000.0,0.30000001192092896
162,1,0.23502571880817413,0.2775000035762787,-0.001340996939688921,0.00017059801029972732,-15195.4677734375,26.497787475585938,114.4671630859375,-10824.912109375,0.0,0.0,0.0,0.0,2.499999936844688e-05,0.02500000037252903,1000.0424194335938,100000000.0,0.30000001192092896
163,1,0.24002546072006226,0.27250000834465027,-0.0013139663496986032,0.0001471302966820076,-18371.767578125,98.30223083496094,101.55819702148438,-13157.830078125,0.0,0.0,0.0,0.0,2.499999936844688e-05,0.02500000037252903,1000.04833984375,100000000.0,0.30000001192092896
164,1,0.24002546072006226,0.2775000035762787,-0.0013098662020638585,0.00018546658975537866,-17495.373046875,221.33364868164062,119.9938735961914,-12506.25,0.0,0.0,0.0,0.0,2.499999936844688e-05,0.02500000037252903,1000.0474243164062,100000000.0,0.30000001192092896
165,1,0.23502571880817413,0.2824999988079071,-0.001336961635388434,0.00020440960361156613,-14494.2900390625,-115.67330932617188,130.08526611328125,-10362.0126953125,0.0,0.0,0.0,0.0,2.499999936844688e-05,0.02500000037252903,1000.0380249023438,100000000.0,0.30000001192092896
166,1,0.23502570390701294,0.2874999940395355,-0.0013325943145900965,0.00023598471307195723,-13618.4462890625,-107.349365234375,143.3869171142578,-9709.578125,0.0,0.0,0.0,0.0,2.499999936844688e-05,0.02500000037252903,1000.0365600585938,100000000.0,0.30000001192092896
167,1,0.24002544581890106,0.2824999988079071,-0.0013054105220362544,0.00022125273244455457,-16641.783203125,119.83015441894531,135.67823791503906,-11937.630859375,0.0,0.0,0.0,0.0,2.499999936844688e-05,0.02500000037252903,1000.0460815429688,100000000.0,0.30000001192092896
168,1,0.24002544581890106,0.2874999940395355,-0.0013005905784666538,0.00025448782253079116,-15577.7900390625,128.16415405273438,148.61209106445312,-11146.1689453125,0.0,0.0,0.0,0.0,2.499999936844688e-05,0.02500000037252903,1000.0445556640625,100000000.0,0.30000001192092896
169,1,0.23502567410469055,0.29249998927116394,-0.001328456331975758,0.00026505222194828093,-12997.5634765625,-492.4100646972656,156.71139526367188,-9308.669921875,0.0,0.0,0.0,0.0,2.499999936844688e-05,0.02500000037252903,1000.03173828125,100000000.0,0.30000001192092896
170,1,0.23502565920352936,0.29750001430511475,-0.001324547454714775,0.0002916121738962829,-12426.63671875,-588.8719482421875,170.0601043701172,-8884.1201171875,0.0,0.0,0.0,0.0,2.499999936844688e-05,0.02500000037252903,1000.0278930664062,100000000.0,0.30000001192092896
171,1,0.24002544581890106,0.29249998927116394,-0.0012958167353644967,0.000285224145045504,-14658.3134765625,-320.072998046875,159.39971923828125,-10525.0126953125,0.0,0.0,0.0,0.0,2.499999936844688e-05,0.02500000037252903,1000.0392456054688,100000000.0,0.30000001192092896
172,1,0.24002543091773987,0.29750001430511475,-0.0012910891091451049,0.0003134616417810321,-13670.2880859375,-416.5483703613281,168.0418701171875,-9788.623046875,0.0,0.0,0.0,0.0,2.499999936844688e-05,0.02500000037252903,1000.037109375,100000000.0,0.30000001192092896
173,1,0.23502562940120697,0.30250000953674316,-0.001321387942880392,0.0003162583743687719,-12343.0439453125,-704.832763671875,185.5203857421875,-8866.103515625,0.0,0.0,0.0,0.0,2.499999936844688e-05,0.02500000037252903,1000.02734375,100000000.0,0.30000001192092896
174,1,0.24002540111541748,0.30250000953674316,-0.0012867721961811185,0.0003400298592168838,-12898.4814453125,-708.960693359375,173.77272033691406,-9255.5078125,0.0,0.0,0.0,0.0,2.499999936844688e-05,0.02500000037252903,1000.0317993164062,100000000.0,0.30000001192092896
175,1,0.2400253564119339,0.3075000047683716,-0.0012828734470531344,0.0003649308637250215,-12202.943359375,-631.9655151367188,176.5942840576172,-8738.2431640625,0.0,0.0,0.0,0.0,2.499999936844688e-05,0.02500000037252903,1000.0274047851562,100000000.0,0.30000001192092896
176,1,0.24502545595169067,0.19249999523162842,-0.0012271760497242212,-0.00043935616849921644,-10364.4853515625,132.1639862060547,-134.25074768066406,-7428.47119140625,0.0,0.0,0.0,0.0,2.499999936844688e-05,0.02500000037252903,1000.0186767578125,100000000.0,0.30000001192092896
177,1,0.24502547085285187,0.19750000536441803,-0.0012303494149819016,-0.0004180514079052955,-11854.04296875,50.921409606933594,-142.2847442626953,-8537.9267578125,0.0,0.0,0.0,0.0,2.499999936844688e-05,0.02500000037252903,1000.026611328125,100000000.0,0.30000001192092896
178,1,0.2500212788581848,0.19249999523162842,-0.0011912017362192273,-0.0004568887234199792,-11845.216796875,-237.09524536132812,-141.36341857910156,-8542.365234375,0.0,0.0,0.0,0.0,2.499999936844688e-05,0.02500000037252903,1000.0288696289062,100000000.0,0.30000001192092896
179,1,0.2500212788581848,0.19750000536441803,-0.0011928635649383068,-0.0004363931657280773,-13164.447265625,-318.3315124511719,-143.3400115966797,-9524.84375,0.0,0.0,0.0,0.0,2.499999936844688e-05,0.02500000037252903,1000.035400390625,100000000.0,0.30000001192092896
180,1,0.24502545595169067,0.20250000059604645,-0.001234358991496265,-0.00039467832539230585,-13197.140625,-389.5743103027344,-144.6410369873047,-9478.4130859375,0.0,0.0,0.0,0.0,2.499999936844688e-05,0.02500000037252903,1000.0350341796875,100000000.0,0.30000001192092896
181,1,0.24502545595169067,0.20749999582767487,-0.0012392076896503568,-0.0003692382015287876,-14591.921875,-373.85986328125,-141.32017517089844,-10517.2392578125,0.0,0.0,0.0,0.0,2.499999936844688e-05,0.02500000037252903,1000.041015625,100000000.0,0.30000001192092896
182,1,0.2500212490558624,0.20250000059604645,-0.0011957401875406504,-0.0004132376634515822,-14472.4375,-755.8511352539062,-143.12454223632812,-10422.7333984375,0.0,0.0,0.0,0.0,2.499999936844688e-05,0.02500000037252903,1000.043212890625,100000000.0,0.30000001192092896
183,1,0.25002121925354004,0.20749999582767487,-0.0011998343979939818,-0.00038742326432839036,-16023.4052734375,-740.1375122070312,-140.71775817871094,-11577.8603515625,0.0,0.0,0.0,0.0,2.499999936844688e-05,0.02500000037252903,1000.0462646484375,100000000.0,0.30000001192092896
184,1,0.2450254261493683,0.21250000596046448,-0.001244608429260552,-0.000341101927915588,-15821.478515625,-686.5558471679688,-135.41773986816406,-11359.0166015625,0.0,0.0,0.0,0.0,2.499999936844688e-05,0.02500000037252903,1000.0454711914062,100000000.0,0.30000001192092896
185,1,0.2450253814458847,0.2175000011920929,-0.0012505606282502413,-0.0003102693590335548,-17130.8046875,-624.8070068359375,-126.93152618408203,-12334.3193359375,0.0,0.0,0.0,0.0,2.499999936844688e-05,0.02500000037252903,1000.047119140625,100000000.0,0.30000001192092896
186,1,0.25002115964889526,0.21250000596046448,-0.0012047742493450642,-0.0003585852973628789,-17431.091796875,-1035.6444091796875,-136.27345275878906,-12543.8486328125,0.0,0.0,0.0,0.0,2.499999936844688e-05,0.02500000037252903,1000.0479125976562,100000000.0,0.30000001192092896
187,1,0.2500211000442505,0.2175000011920929,-0.0012105589266866446,-0.0003267238207627088,-18969.978515625,-973.9024047851562,-129.7919921875,-13689.1630859375,0.0,0.0,0.0,0.0,2.499999936844688e-05,0.02500000037252903,1000.0498046875,100000000.0,0.30000001192092896
188,1,0.24502533674240112,0.2224999964237213,-0.0012567166704684496,-0.0002764429955277592,-18243.994140625,-822.2709350585938,-115.82884216308594,-13082.4892578125,0.0,0.0,0.0,0.0,2.499999936844688e-05,0.02500000037252903,1000.0484619140625,100000000.0,0.30000001192092896
189,1,0.24502529203891754,0.22750000655651093,-0.0012630727142095566,-0.00023962180421222,-19429.78125,-903.5100708007812,-102.106689453125,-13965.814453125,0.0,0.0,0.0,0.0,2.499999936844688e-05,0.02500000037252903,1000.0501098632812,100000000.0,0.30000001192092896
190,1,0.2500210404396057,0.2224999964237213,-0.0012167389504611492,-0.00029151237686164677,-20303.59375,-1140.9326171875,-120.20700073242188,-14592.37890625,0.0,0.0,0.0,0.0,2.499999936844688e-05,0.02500000037252903,1000.051025390625,100000000.0,0.30000001192092896
191,1,0.25002095103263855,0.22750000655651093,-0.0012233108282089233,-0.000252949888817966,-21735.689453125,-1222.147216796875,-107.51994323730469,-15659.3037109375,0.0,0.0,0.0,0.0,2.499999936844688e-05,0.02500000037252903,1000.054443359375,100000000.0,0.30000001192092896
192,1,0.24502524733543396,0.23250000178813934,-0.0012689969735220075,-0.0002000638487515971,-20347.546875,-782.8171997070312,-85.23026275634766,-14574.9853515625,0.0,0.0,0.0,0.0,2.499999936844688e-05,0.02500000037252903,1000.0509643554688,100000000.0,0.30000001192092896
193,1,0.24502520263195038,0.23749999701976776,-0.0012744927080348134,-0.00015776966756675392,-21243.046875,-767.1050415039062,-65.19921875,-15241.2763671875,0.0,0.0,0.0,0.0,2.499999936844688e-05,0.02500000037252903,1000.0515747070312,100000000.0,0.30000001192092896
194,1,0.2500208914279938,0.23250000178813934,-0.001229534507729113,-0.00021122767066117376,-22861.78515625,-1025.0826416015625,-90.99114990234375,-16413.0078125,0.0,0.0,0.0,0.0,2.499999936844688e-05,0.02500000037252903,1000.0595703125,100000000.0,0.30000001192092896
195,1,0.250020831823349,0.23749999701976776,-0.0012354133650660515,-0.00016634621715638787,-23971.400390625,-1009.3720703125,-70.62043762207031,-17238.21484375,0.0,0.0,0.0,0.0,2.499999936844688e-05,0.02500000037252903,1000.0620727539062,100000000.0,0.30000001192092896
196,1,0.2450251579284668,0.24250000715255737,-0.0012788914609700441,-0.00011358954361639917,-21828.49609375,-466.884521484375,-42.63877487182617,-15627.318359375,0.0,0.0,0.0,0.0,2.499999936844688e-05,0.02500000037252903,1000.0540161132812,100000000.0,0.30000001192092896
197,1,0.2450251281261444,0.2475000023841858,-0.0012821925338357687,-6.752351328032091e-05,-22277.3671875,-405.1459655761719,-17.549734115600586,-15960.07421875,0.0,0.0,0.0,0.0,2.499999936844688e-05,0.02500000037252903,1000.054931640625,100000000.0,0.30000001192092896
198,1,0.2500207722187042,0.24250000715255737,-0.0012401394778862596,-0.00011924085993086919,-24706.765625,-588.7374267578125,-47.0458984375,-17725.58984375,0.0,0.0,0.0,0.0,2.499999936844688e-05,0.02500000037252903,1000.0650024414062,100000000.0,0.30000001192092896
199,1,0.25002074241638184,0.2475000023841858,-0.0012437121476978064,-6.991160626057535e-05,-25271.75,-527.001708984375,-20.267406463623047,-18146.03125,0.0,0.0,0.0,0.0,2.499999936844688e-05,0.02500000037252903,1000.0675048828125,100000000.0,0.30000001192092896
200,1,0.24502511322498322,0.2524999976158142,-0.0012839940609410405,-2.091797796310857e-05,-22430.17578125,-121.3038558959961,8.393152236938477,-16060.107421875,0.0,0.0,0.0,0.0,2.499999936844688e-05,0.02500000037252903,1000.0551147460938,100000000.0,0.30000001192092896
201,1,0.24502509832382202,0.2574999928474426,-0.001284291734918952,2.622716419864446e-05,-22337.283203125,-112.98345947265625,35.189693450927734,-15990.9140625,0.0,0.0,0.0,0.0,2.499999936844688e-05,0.02500000037252903,1000.0549926757812,100000000.0,0.30000001192092896
202,1,0.25002071261405945,0.2524999976158142,-0.0012456318363547325,-1.993301157199312e-05,-25467.96875,-96.32086181640625,7.624087333679199,-18274.912109375,0.0,0.0,0.0,0.0,2.499999936844688e-05,0.02500000037252903,1000.0681762695312,100000000.0,0.30000001192092896
203,1,0.25002071261405945,0.2574999928474426,-0.0012458943529054523,3.0695038731209934e-05,-25355.0078125,-88.00419616699219,36.62862777709961,-18191.0546875,0.0,0.0,0.0,0.0,2.499999936844688e-05,0.02500000037252903,1000.068115234375,100000000.0,0.30000001192092896
204,1,0.24502509832382202,0.26249998807907104,-0.001283146208152175,7.239613478304818e-05,-22026.36328125,57.60395431518555,60.78929901123047,-15786.50390625,0.0,0.0,0.0,0.0,2.499999936844688e-05,0.02500000037252903,1000.0543823242188,100000000.0,0.30000001192092896
205,1,0.24502509832382202,0.26750001311302185,-0.0012805573642253876,0.00011758883920265362,-21409.080078125,-38.868282318115234,85.19178009033203,-15326.783203125,0.0,0.0,0.0,0.0,2.499999936844688e-05,0.02500000037252903,1000.0523071289062,100000000.0,0.30000001192092896
206,1,0.25002071261405945,0.26249998807907104,-0.0012445723405107856,8.017636719159782e-05,-24966.3203125,225.14419555664062,64.10324096679688,-17932.23046875,0.0,0.0,0.0,0.0,2.499999936844688e-05,0.02500000037252903,1000.0664672851562,100000000.0,0.30000001192092896
207,1,0.25002071261405945,0.26750001311302185,-0.0012416656827554107,0.00012851087376475334,-24194.81640625,128.68865966796875,90.04756927490234,-17358.68359375,0.0,0.0,0.0,0.0,2.499999936844688e-05,0.02500000037252903,1000.0634765625,100000000.0,0.30000001192092896
208,1,0.24502511322498322,0.27250000834465027,-0.0012770162429660559,0.00016054019215516746,-20689.376953125,350.39544677734375,106.86502838134766,-14851.412109375,0.0,0.0,0.0,0.0,2.499999936844688e-05,0.02500000037252903,1000.051025390625,100000000.0,0.30000001192092896
209,1,0.2450251281261444,0.2775000035762787,-0.001272530178539455,0.0002012514742091298,-19663.6953125,473.4067077636719,125.80921936035156,-14088.19140625,0.0,0.0,0.0,0.0,2.499999936844688e-05,0.02500000037252903,1000.0501708984375,100000000.0,0.30000001192092896
210,1,0.25002074241638184,0.27250000834465027,-0.0012377783423289657,0.0001742266904329881,-23297.60546875,627.41455078125,112.51575469970703,-16761.0234375,0.0,0.0,0.0,0.0,2.499999936844688e-05,0.02500000037252903,1000.0606689453125,100000000.0,0.30000001192092896
211,1,0.25002074241638184,0.2775000035762787,-0.001232917420566082,0.00021732499590143561,-22033.947265625,750.4120483398438,131.50685119628906,-15819.5751953125,0.0,0.0,0.0,0.0,2.499999936844688e-05,0.02500000037252903,1000.0554809570312,100000000.0,0.30000001192092896
212,1,0.2450251430273056,0.2824999988079071,-0.0012677740305662155,0.00023902424436528236,-18654.666015625,427.9214172363281,141.53829956054688,-13415.07421875,0.0,0.0,0.0,0.0,2.499999936844688e-05,0.02500000037252903,1000.0486450195312,100000000.0,0.30000001192092896
213,1,0.245025172829628,0.2874999940395355,-0.0012627397663891315,0.00027385744033381343,-17396.767578125,436.2440185546875,154.0513916015625,-12478.89453125,0.0,0.0,0.0,0.0,2.499999936844688e-05,0.02500000037252903,1000.047607421875,100000000.0,0.30000001192092896
214,1,0.2500207722187042,0.2824999988079071,-0.0012279083020985126,0.0002570580109022558,-20792.501953125,765.7306518554688,146.43243408203125,-14986.587890625,0.0,0.0,0.0,0.0,2.499999936844688e-05,0.02500000037252903,1000.0511474609375,100000000.0,0.30000001192092896
215,1,0.2500208020210266,0.2874999940395355,-0.0012227434199303389,0.0002934243530035019,-19271.15625,774.05419921875,157.2904510498047,-13853.896484375,0.0,0.0,0.0,0.0,2.499999936844688e-05,0.02500000037252903,1000.04931640625,100000000.0,0.30000001192092896
216,1,0.245025172829628,0.29249998927116394,-0.0012579745380207896,0.0003057807625737041,-16184.7470703125,14.574556350708008,162.3114776611328,-11651.9541015625,0.0,0.0,0.0,0.0,2.499999936844688e-05,0.02500000037252903,1000.0457763671875,100000000.0,0.30000001192092896
217,1,0.245025172829628,0.29750001430511475,-0.001253478112630546,0.0003347942547407001,-14760.4296875,-81.90306854248047,166.3169708251953,-10591.6796875,0.0,0.0,0.0,0.0,2.499999936844688e-05,0.02500000037252903,1000.04150390625,100000000.0,0.30000001192092896
218,1,0.250020831823349,0.29249998927116394,-0.0012181373313069344,0.00032640594872646034,-17847.8203125,391.3132019042969,164.1322479248047,-12883.810546875,0.0,0.0,0.0,0.0,2.499999936844688e-05,0.02500000037252903,1000.0482177734375,100000000.0,0.30000001192092896
219,1,0.2500208616256714,0.29750001430511475,-0.0012140902690589428,0.00035600271075963974,-16213.8349609375,294.843505859375,166.95777893066406,-11668.130859375,0.0,0.0,0.0,0.0,2.499999936844688e-05,0.02500000037252903,1000.04638671875,100000000.0,0.30000001192092896
220,1,0.245025172829628,0.30250000953674316,-0.0012497634161263704,0.00036141605232842267,-13332.9521484375,-349.4261169433594,162.559326171875,-9593.1513671875,0.0,0.0,0.0,0.0,2.499999936844688e-05,0.02500000037252903,1000.0362548828125,100000000.0,0.30000001192092896
221,1,0.2450251430273056,0.3075000047683716,-0.0012468372005969286,0.000385648338124156,-11685.3232421875,-272.43896484375,151.03823852539062,-8365.98828125,0.0,0.0,0.0,0.0,2.499999936844688e-05,0.02500000037252903,1000.0267333984375,100000000.0,0.30000001192092896
222,1,0.2500208914279938,0.30250000953674316,-0.001211231923662126,0.00038243792369030416,-14814.6611328125,59.36252212524414,165.8043975830078,-10714.1201171875,0.0,0.0,0.0,0.0,2.499999936844688e-05,0.02500000037252903,1000.0431518554688,100000000.0,0.30000001192092896
223,1,0.2500208914279938,0.3075000047683716,-0.0012095696292817593,0.0004057138867210597,-13351.8125,136.33279418945312,160.67251586914062,-9624.9833984375,0.0,0.0,0.0,0.0,2.499999936844688e-05,0.02500000037252903,1000.0377197265625,100000000.0,0.30000001192092896
224,1,0.25502094626426697,0.19249999523162842,-0.0011480092070996761,-0.00047524741967208683,-13811.115234375,-542.43212890625,-150.85890197753906,-10000.7861328125,0.0,0.0,0.0,0.0,2.499999936844688e-05,0.02500000037252903,1000.038330078125,100000000.0,0.30000001192092896
225,1,0.2550209164619446,0.19750000536441803,-0.0011488497257232666,-0.0004546108830254525,-14967.9794921875,-623.6647338867188,-145.7012176513672,-10862.12890625,0.0,0.0,0.0,0.0,2.499999936844688e-05,0.02500000037252903,1000.043701171875,100000000.0,0.30000001192092896
226,1,0.2600206136703491,0.19249999523162842,-0.0011032696347683668,-0.0004932194715365767,-13985.7216796875,-892.6006469726562,-135.35012817382812,-10124.5029296875,0.0,0.0,0.0,0.0,2.499999936844688e-05,0.02500000037252903,1000.0386962890625,100000000.0,0.30000001192092896
227,1,0.26002052426338196,0.19750000536441803,-0.00110292574390769,-0.00047246096073649824,-15997.44921875,-973.8253173828125,-135.5378875732422,-11622.8642578125,0.0,0.0,0.0,0.0,2.499999936844688e-05,0.02500000037252903,1000.0460205078125,100000000.0,0.30000001192092896
228,1,0.2550208568572998,0.20250000059604645,-0.0011507774470373988,-0.00043131428537890315,-16273.833984375,-1180.889404296875,-142.2036895751953,-11760.3115234375,0.0,0.0,0.0,0.0,2.499999936844688e-05,0.02500000037252903,1000.0463256835938,100000000.0,0.30000001192092896
229,1,0.25502079725265503,0.20749999582767487,-0.001153795514255762,-0.00040535887819714844,-17974.888671875,-1165.1746826171875,-140.36669921875,-13027.03515625,0.0,0.0,0.0,0.0,2.499999936844688e-05,0.02500000037252903,1000.0480346679688,100000000.0,0.30000001192092896
230,1,0.2600204050540924,0.20250000059604645,-0.0011036238865926862,-0.00044908790732733905,-17796.3046875,-1622.853759765625,-135.88023376464844,-12892.7978515625,0.0,0.0,0.0,0.0,2.499999936844688e-05,0.02500000037252903,1000.0478515625,100000000.0,0.30000001192092896
231,1,0.2600202262401581,0.20749999582767487,-0.00110536755528301,-0.00042310156277380884,-19615.12890625,-1607.1424560546875,-136.37796020507812,-14246.4453125,0.0,0.0,0.0,0.0,2.499999936844688e-05,0.02500000037252903,1000.0496826171875,100000000.0,0.30000001192092896
232,1,0.25502070784568787,0.21250000596046448,-0.0011579350102692842,-0.0003761302214115858,-19557.65625,-1470.80224609375,-137.18785095214844,-14118.73828125,0.0,0.0,0.0,0.0,2.499999936844688e-05,0.02500000037252903,1000.0501098632812,100000000.0,0.30000001192092896
233,1,0.2550206184387207,0.2175000011920929,-0.0011631953530013561,-0.0003436284314375371,-21315.837890625,-1409.06591796875,-132.66671752929688,-15427.748046875,0.0,0.0,0.0,0.0,2.499999936844688e-05,0.02500000037252903,1000.0520629882812,100000000.0,0.30000001192092896
234,1,0.26002004742622375,0.21250000596046448,-0.0011085283476859331,-0.0003936065477319062,-21404.1953125,-1939.7576904296875,-135.5952606201172,-15487.173828125,0.0,0.0,0.0,0.0,2.499999936844688e-05,0.02500000037252903,1000.0528564453125,100000000.0,0.30000001192092896
235,1,0.2600198984146118,0.2175000011920929,-0.0011131056817248464,-0.00036060306592844427,-23473.08203125,-1878.0279541015625,-133.5326385498047,-17027.5234375,0.0,0.0,0.0,0.0,2.499999936844688e-05,0.02500000037252903,1000.06005859375,100000000.0,0.30000001192092896
236,1,0.25502052903175354,0.2224999964237213,-0.0011691439431160688,-0.0003073264961130917,-22860.818359375,-1553.00732421875,-124.58174133300781,-16476.123046875,0.0,0.0,0.0,0.0,2.499999936844688e-05,0.02500000037252903,1000.0580444335938,100000000.0,0.30000001192092896
237,1,0.2550204396247864,0.22750000655651093,-0.0011757768224924803,-0.0002672234259080142,-24534.70703125,-1634.2152099609375,-112.9321060180664,-17722.294921875,0.0,0.0,0.0,0.0,2.499999936844688e-05,0.02500000037252903,1000.0639038085938,100000000.0,0.30000001192092896
238,1,0.2600197494029999,0.2224999964237213,-0.0011186983902007341,-0.0003233293246012181,-25342.271484375,-2004.6888427734375,-127.6583251953125,-18304.337890625,0.0,0.0,0.0,0.0,2.499999936844688e-05,0.02500000037252903,1000.0671997070312,100000000.0,0.30000001192092896
239,1,0.26001954078674316,0.22750000655651093,-0.0011253036791458726,-0.00028178407228551805,-27396.81640625,-2085.7509765625,-117.97140502929688,-19834.08984375,0.0,0.0,0.0,0.0,2.499999936844688e-05,0.02500000037252903,1000.0756225585938,100000000.0,0.30000001192092896
240,1,0.2550203502178192,0.23250000178813934,-0.0011822289088740945,-0.0002234149578725919,-25861.9765625,-1348.52099609375,-96.7472152709961,-18610.4296875,0.0,0.0,0.0,0.0,2.499999936844688e-05,0.02500000037252903,1000.0686645507812,100000000.0,0.30000001192092896
241,1,0.2550201416015625,0.23749999701976776,-0.0011885047424584627,-0.00017590152856428176,-27181.943359375,-1332.8060302734375,-76.02687072753906,-19592.921875,0.0,0.0,0.0,0.0,2.499999936844688e-05,0.02500000037252903,1000.0741577148438,100000000.0,0.30000001192092896
242,1,0.26001936197280884,0.23250000178813934,-0.0011319344630464911,-0.0002359432546654716,-29065.103515625,-1708.2755126953125,-102.89280700683594,-20959.876953125,0.0,0.0,0.0,0.0,2.499999936844688e-05,0.02500000037252903,1000.0845336914062,100000000.0,0.30000001192092896
243,1,0.2600191831588745,0.23749999701976776,-0.0011385942343622446,-0.00018580741016194224,-30742.380859375,-1692.5638427734375,-82.4223861694336,-22208.59375,0.0,0.0,0.0,0.0,2.499999936844688e-05,0.02500000037252903,1000.0908203125,100000000.0,0.30000001192092896
244,1,0.25501999258995056,0.24250000715255737,-0.0011935934890061617,-0.0001257056137546897,-28059.103515625,-755.111328125,-51.42668914794922,-20172.375,0.0,0.0,0.0,0.0,2.499999936844688e-05,0.02500000037252903,1000.0796508789062,100000000.0,0.30000001192092896
245,1,0.2550199031829834,0.2475000023841858,-0.0011974952649325132,-7.282714796019718e-05,-28738.16015625,-693.3933715820312,-22.946714401245117,-20679.220703125,0.0,0.0,0.0,0.0,2.499999936844688e-05,0.02500000037252903,1000.083251953125,100000000.0,0.30000001192092896
246,1,0.2600189745426178,0.24250000715255737,-0.0011440482921898365,-0.00013247727474663407,-31876.41015625,-942.1346435546875,-56.991031646728516,-22966.279296875,0.0,0.0,0.0,0.0,2.499999936844688e-05,0.02500000037252903,1000.0952758789062,100000000.0,0.30000001192092896
247,1,0.26001885533332825,0.2475000023841858,-0.0011482950067147613,-7.595305942231789e-05,-32764.55859375,-880.4278564453125,-26.59868049621582,-23627.20703125,0.0,0.0,0.0,0.0,2.499999936844688e-05,0.02500000037252903,1000.0985107421875,100000000.0,0.30000001192092896
248,1,0.25501978397369385,0.2524999976158142,-0.001199563848786056,-1.91425860975869e-05,-28974.78125,-63.68291091918945,6.902824878692627,-20833.08203125,0.0,0.0,0.0,0.0,2.499999936844688e-05,0.02500000037252903,1000.084716796875,100000000.0,0.30000001192092896
249,1,0.2550197243690491,0.2574999928474426,-0.0011997948167845607,3.534815914463252e-05,-28842.03125,-55.3662223815918,38.121761322021484,-20733.98828125,0.0,0.0,0.0,0.0,2.499999936844688e-05,0.02500000037252903,1000.0839233398438,100000000.0,0.30000001192092896
250,1,0.2600187659263611,0.2524999976158142,-0.0011505195870995522,-1.844467260525562e-05,-33083.69921875,-27.727066040039062,5.586845874786377,-23834.810546875,0.0,0.0,0.0,0.0,2.499999936844688e-05,0.02500000037252903,1000.0999145507812,100000000.0,0.30000001192092896
251,1,0.2600187063217163,0.2574999928474426,-0.001150718191638589,4.004802758572623e-05,-32919.0078125,-19.41105079650879,39.56581115722656,-23712.189453125,0.0,0.0,0.0,0.0,2.499999936844688e-05,0.02500000037252903,1000.0994262695312,100000000.0,0.30000001192092896
252,1,0.2550197243690491,0.26249998807907104,-0.0011982833966612816,8.846374112181365e-05,-28376.78125,451.1346435546875,67.47335815429688,-20425.17578125,0.0,0.0,0.0,0.0,2.499999936844688e-05,0.02500000037252903,1000.08203125,100000000.0,0.30000001192092896
253,1,0.25501975417137146,0.26750001311302185,-0.0011950298212468624,0.00014020412345416844,-27453.3203125,354.68536376953125,94.95796966552734,-19737.095703125,0.0,0.0,0.0,0.0,2.499999936844688e-05,0.02500000037252903,1000.0762939453125,100000000.0,0.30000001192092896
254,1,0.2600187659263611,0.26249998807907104,-0.0011490137549117208,9.691191371530294e-05,-32316.580078125,703.7079467773438,71.13202667236328,-23309.783203125,0.0,0.0,0.0,0.0,2.499999936844688e-05,0.02500000037252903,1000.0968017578125,100000000.0,0.30000001192092896
255,1,0.26001882553100586,0.26750001311302185,-0.001145407441072166,0.00015214688028208911,-31130.76953125,607.27734375,100.28520965576172,-22427.291015625,0.0,0.0,0.0,0.0,2.499999936844688e-05,0.02500000037252903,1000.0924072265625,100000000.0,0.30000001192092896
256,1,0.25501981377601624,0.27250000834465027,-0.0011908120941370726,0.00018881737196352333,-26381.73046875,995.8074951171875,118.20895385742188,-19024.75,0.0,0.0,0.0,0.0,2.499999936844688e-05,0.02500000037252903,1000.0706787109375,100000000.0,0.30000001192092896
257,1,0.2550199031829834,0.2775000035762787,-0.0011856373166665435,0.00023430507280863822,-24878.443359375,1118.82861328125,137.22784423828125,-17904.3515625,0.0,0.0,0.0,0.0,2.499999936844688e-05,0.02500000037252903,1000.0662231445312,100000000.0,0.30000001192092896
258,1,0.260018914937973,0.27250000834465027,-0.00114087772089988,0.00020369411504361778,-29759.642578125,1404.7900390625,124.15047454833984,-21506.814453125,0.0,0.0,0.0,0.0,2.499999936844688e-05,0.02500000037252903,1000.0872192382812,100000000.0,0.30000001192092896
259,1,0.2600190341472626,0.2775000035762787,-0.0011354306479915977,0.0002515552914701402,-27863.9765625,1527.7562255859375,142.72869873046875,-20095.203125,0.0,0.0,0.0,0.0,2.499999936844688e-05,0.02500000037252903,1000.0794677734375,100000000.0,0.30000001192092896
260,1,0.25501999258995056,0.2824999988079071,-0.0011805366957560182,0.0002758423506747931,-23410.587890625,1205.275146484375,151.3513641357422,-16918.16796875,0.0,0.0,0.0,0.0,2.499999936844688e-05,0.02500000037252903,1000.0604858398438,100000000.0,0.30000001192092896
261,1,0.2550201117992401,0.2874999940395355,-0.001175502547994256,0.00031342796864919364,-21619.4453125,1213.603515625,160.5783233642578,-15584.6396484375,0.0,0.0,0.0,0.0,2.499999936844688e-05,0.02500000037252903,1000.0535888671875,100000000.0,0.30000001192092896
262,1,0.2600191831588745,0.2824999988079071,-0.001130318851210177,0.00029483044636435807,-26036.361328125,1687.1793212890625,155.5240020751953,-18859.19140625,0.0,0.0,0.0,0.0,2.499999936844688e-05,0.02500000037252903,1000.0697631835938,100000000.0,0.30000001192092896
263,1,0.26001930236816406,0.2874999940395355,-0.0011255360441282392,0.0003335178189445287,-23859.6875,1695.5218505859375,162.53614807128906,-17238.0703125,0.0,0.0,0.0,0.0,2.499999936844688e-05,0.02500000037252903,1000.0631713867188,100000000.0,0.30000001192092896
264,1,0.25502023100852966,0.29249998927116394,-0.001171324634924531,0.0003471781383268535,-19969.638671875,850.1712036132812,166.17144775390625,-14460.7353515625,0.0,0.0,0.0,0.0,2.499999936844688e-05,0.02500000037252903,1000.0493774414062,100000000.0,0.30000001192092896
265,1,0.2550203502178192,0.29750001430511475,-0.001168002956546843,0.00037709268508479,-18113.7109375,753.7129516601562,168.13046264648438,-13078.28125,0.0,0.0,0.0,0.0,2.499999936844688e-05,0.02500000037252903,1000.0482177734375,100000000.0,0.30000001192092896
266,1,0.2600194215774536,0.29249998927116394,-0.0011219476582482457,0.0003679104265756905,-21935.177734375,1337.13671875,165.5799560546875,-15922.4794921875,0.0,0.0,0.0,0.0,2.499999936844688e-05,0.02500000037252903,1000.05419921875,100000000.0,0.30000001192092896
267,1,0.26001954078674316,0.29750001430511475,-0.0011195538099855185,0.00039800824015401304,-19875.556640625,1240.6793212890625,164.6553955078125,-14388.4365234375,0.0,0.0,0.0,0.0,2.499999936844688e-05,0.02500000037252903,1000.0492553710938,100000000.0,0.30000001192092896
268,1,0.255020409822464,0.30250000953674316,-0.0011658137664198875,0.00040372306830249727,-16696.44921875,398.171630859375,170.27191162109375,-12115.6767578125,0.0,0.0,0.0,0.0,2.499999936844688e-05,0.02500000037252903,1000.046875,100000000.0,0.30000001192092896
269,1,0.25502046942710876,0.3075000047683716,-0.0011647631181403995,0.00042707196553237736,-15414.1728515625,475.1442565917969,172.59674072265625,-11160.1025390625,0.0,0.0,0.0,0.0,2.499999936844688e-05,0.02500000037252903,1000.0447998046875,100000000.0,0.30000001192092896
270,1,0.2600196301937103,0.30250000953674316,-0.0011183300521224737,0.0004247422912158072,-17865.8828125,788.8521728515625,162.07449340820312,-12984.4189453125,0.0,0.0,0.0,0.0,2.499999936844688e-05,0.02500000037252903,1000.0479125976562,100000000.0,0.30000001192092896
271,1,0.2600197196006775,0.3075000047683716,-0.0011182819725945592,0.0004481153446249664,-15596.9697265625,865.8176879882812,157.83934020996094,-11294.759765625,0.0,0.0,0.0,0.0,2.499999936844688e-05,0.02500000037252903,1000.0452880859375,100000000.0,0.30000001192092896
272,1,0.26502010226249695,0.19249999523162842,-0.0010563625255599618,-0.0005081259878352284,-14382.3271484375,-1570.0029296875,-119.84303283691406,-10426.8564453125,0.0,0.0,0.0,0.0,2.499999936844688e-05,0.02500000037252903,1000.0393676757812,100000000.0,0.30000001192092896
273,1,0.265019953250885,0.19750000536441803,-0.0010520222131162882,-0.00048827732098288834,-17250.140625,-1651.205078125,-125.16163635253906,-12561.845703125,0.0,0.0,0.0,0.0,2.499999936844688e-05,0.02500000037252903,1000.047119140625,100000000.0,0.30000001192092896
274,1,0.27001953125,0.19750000536441803,-0.0009990037651732564,-0.0005034617497585714,-19120.583984375,-2272.607177734375,-113.51371765136719,-13960.6650390625,0.0,0.0,0.0,0.0,2.499999936844688e-05,0.02500000037252903,1000.0484008789062,100000000.0,0.30000001192092896
275,1,0.26501980423927307,0.20250000059604645,-0.0010496523464098573,-0.00046555648441426456,-19520.123046875,-2106.6015625,-129.2989501953125,-14180.1083984375,0.0,0.0,0.0,0.0,2.499999936844688e-05,0.02500000037252903,1000.0490112304688,100000000.0,0.30000001192092896
276,1,0.26501965522766113,0.20749999582767487,-0.001049255719408393,-0.00043996478780172765,-21437.060546875,-2090.88623046875,-132.256103515625,-15608.349609375,0.0,0.0,0.0,0.0,2.499999936844688e-05,0.02500000037252903,1000.0515747070312,100000000.0,0.30000001192092896
277,1,0.2700192928314209,0.20250000059604645,-0.000993539928458631,-0.00048137744306586683,-20700.28125,-2619.08642578125,-115.15786743164062,-15065.4521484375,0.0,0.0,0.0,0.0,2.499999936844688e-05,0.02500000037252903,1000.0493774414062,100000000.0,0.30000001192092896
278,1,0.27001896500587463,0.20749999582767487,-0.0009907525964081287,-0.00045632009278051555,-22968.263671875,-2603.362548828125,-121.50581359863281,-16754.091796875,0.0,0.0,0.0,0.0,2.499999936844688e-05,0.02500000037252903,1000.0567626953125,100000000.0,0.30000001192092896
279,1,0.2650194466114044,0.21250000596046448,-0.001050708000548184,-0.00041063729440793395,-23419.787109375,-2526.4013671875,-133.99069213867188,-16988.021484375,0.0,0.0,0.0,0.0,2.499999936844688e-05,0.02500000037252903,1000.0595092773438,100000000.0,0.30000001192092896
280,1,0.26501917839050293,0.2175000011920929,-0.001054008724167943,-0.00037757400423288345,-25790.86328125,-2464.67626953125,-134.5027313232422,-18753.482421875,0.0,0.0,0.0,0.0,2.499999936844688e-05,0.02500000037252903,1000.0681762695312,100000000.0,0.30000001192092896
281,1,0.2700185477733612,0.21250000596046448,-0.0009902134770527482,-0.00042730633867904544,-25357.087890625,-3162.093994140625,-126.24099731445312,-18432.439453125,0.0,0.0,0.0,0.0,2.499999936844688e-05,0.02500000037252903,1000.0671997070312,100000000.0,0.30000001192092896
282,1,0.27001821994781494,0.2175000011920929,-0.0009919197764247656,-0.00039433673373423517,-28204.92578125,-3100.3828125,-129.36228942871094,-20553.478515625,0.0,0.0,0.0,0.0,2.499999936844688e-05,0.02500000037252903,1000.0762329101562,100000000.0,0.30000001192092896
283,1,0.26501885056495667,0.2224999964237213,-0.0010587589349597692,-0.00033974272082559764,-27975.673828125,-2601.376220703125,-130.8928985595703,-20251.28125,0.0,0.0,0.0,0.0,2.499999936844688e-05,0.02500000037252903,1000.0782470703125,100000000.0,0.30000001192092896
284,1,0.26501843333244324,0.22750000655651093,-0.0010649552568793297,-0.00029714222182519734,-30405.7578125,-2682.529052734375,-123.162353515625,-22060.5390625,0.0,0.0,0.0,0.0,2.499999936844688e-05,0.02500000037252903,1000.088623046875,100000000.0,0.30000001192092896
285,1,0.2700178623199463,0.2224999964237213,-0.0009955529822036624,-0.00035611988278105855,-30900.96875,-3259.43310546875,-128.85595703125,-22417.91015625,0.0,0.0,0.0,0.0,2.499999936844688e-05,0.02500000037252903,1000.08935546875,100000000.0,0.30000001192092896
286,1,0.27001768350601196,0.22750000655651093,-0.0010011066915467381,-0.0003126551164314151,-33923.55078125,-3340.598388671875,-124.7197265625,-24668.041015625,0.0,0.0,0.0,0.0,2.499999936844688e-05,0.02500000037252903,1000.099853515625,100000000.0,0.30000001192092896
287,1,0.2650182247161865,0.23250000178813934,-0.0010715340031310916,-0.00024950996157713234,-32405.654296875,-2204.08642578125,-109.16693878173828,-23410.994140625,0.0,0.0,0.0,0.0,2.499999936844688e-05,0.02500000037252903,1000.0972290039062,100000000.0,0.30000001192092896
288,1,0.26501795649528503,0.23749999701976776,-0.00107850122731179,-0.00019684582366608083,-34434.58984375,-2188.37060546875,-88.90703582763672,-24922.75390625,0.0,0.0,0.0,0.0,2.499999936844688e-05,0.02500000037252903,1000.1046142578125,100000000.0,0.30000001192092896
289,1,0.2700175344944,0.23250000178813934,-0.0010074813617393374,-0.0002633684198372066,-36497.53515625,-2763.398681640625,-113.36325073242188,-26424.443359375,0.0,0.0,0.0,0.0,2.499999936844688e-05,0.02500000037252903,1000.1129150390625,100000000.0,0.30000001192092896
290,1,0.2700173854827881,0.23749999701976776,-0.0010146802524104714,-0.00020826046238653362,-39164.66015625,-2747.693359375,-94.7876205444336,-28410.966796875,0.0,0.0,0.0,0.0,2.499999936844688e-05,0.02500000037252903,1000.12158203125,100000000.0,0.30000001192092896
291,1,0.2650178074836731,0.24250000715255737,-0.0010843005729839206,-0.00014028044824954122,-35816.09765625,-1208.3399658203125,-62.617557525634766,-25844.09375,0.0,0.0,0.0,0.0,2.499999936844688e-05,0.02500000037252903,1000.111572265625,100000000.0,0.30000001192092896
292,1,0.26501771807670593,0.2475000023841858,-0.0010889325058087707,-7.981365342857316e-05,-36910.25390625,-1146.64892578125,-30.29836082458496,-26658.9140625,0.0,0.0,0.0,0.0,2.499999936844688e-05,0.02500000037252903,1000.1159057617188,100000000.0,0.30000001192092896
293,1,0.2700172960758209,0.24250000715255737,-0.0010207823943346739,-0.0001484554959461093,-41025.7265625,-1512.9959716796875,-68.48835754394531,-29665.263671875,0.0,0.0,0.0,0.0,2.499999936844688e-05,0.02500000037252903,1000.1260375976562,100000000.0,0.30000001192092896
294,1,0.27001723647117615,0.2475000023841858,-0.0010257877875119448,-8.39534550323151e-05,-42516.4296875,-1451.31787109375,-34.466983795166016,-30775.193359375,0.0,0.0,0.0,0.0,2.499999936844688e-05,0.02500000037252903,1000.1309204101562,100000000.0,0.30000001192092896
295,1,0.26501768827438354,0.2524999976158142,-0.0010913307778537273,-1.810427420423366e-05,-37302.8828125,20.458877563476562,4.223989486694336,-26914.458984375,0.0,0.0,0.0,0.0,2.499999936844688e-05,0.02500000037252903,1000.1174926757812,100000000.0,0.30000001192092896
296,1,0.26501771807670593,0.2574999928474426,-0.0010914918966591358,4.484792589209974e-05,-37105.4921875,28.778194427490234,40.949012756347656,-26767.7109375,0.0,0.0,0.0,0.0,2.499999936844688e-05,0.02500000037252903,1000.1168823242188,100000000.0,0.30000001192092896
297,1,0.27001723647117615,0.2524999976158142,-0.0010283523006364703,-1.7915835996973328e-05,-43063.23828125,74.36781311035156,2.3616275787353516,-31139.380859375,0.0,0.0,0.0,0.0,2.499999936844688e-05,0.02500000037252903,1000.1326904296875,100000000.0,0.30000001192092896
298,1,0.27001723647117615,0.2574999928474426,-0.0010284732561558485,4.965754123986699e-05,-42809.921875,82.6820297241211,41.997066497802734,-30950.623046875,0.0,0.0,0.0,0.0,2.499999936844688e-05,0.02500000037252903,1000.13232421875,100000000.0,0.30000001192092896
299,1,0.2650177478790283,0.26249998807907104,-0.0010895910672843456,0.00010582397226244211,-36373.19921875,1056.21923828125,74.7083740234375,-26277.787109375,0.0,0.0,0.0,0.0,2.499999936844688e-05,0.02500000037252903,1000.1134033203125,100000000.0,0.30000001192092896
300,1,0.2650178372859955,0.26750001311302185,-0.0010856272419914603,0.0001648238830966875,-34927.625,959.8056030273438,105.5013656616211,-25201.173828125,0.0,0.0,0.0,0.0,2.499999936844688e-05,0.02500000037252903,1000.107666015625,100000000.0,0.30000001192092896
301,1,0.2700172960758209,0.26249998807907104,-0.0010263830190524459,0.00011486648145364597,-41829.3359375,1455.99560546875,77.87242126464844,-30287.126953125,0.0,0.0,0.0,0.0,2.499999936844688e-05,0.02500000037252903,1000.1286010742188,100000000.0,0.30000001192092896
302,1,0.2700173854827881,0.26750001311302185,-0.001022081938572228,0.00017771089915186167,-39906.2109375,1359.6148681640625,109.98672485351562,-28855.158203125,0.0,0.0,0.0,0.0,2.499999936844688e-05,0.02500000037252903,1000.1229858398438,100000000.0,0.30000001192092896
303,1,0.2650180160999298,0.27250000834465027,-0.0010808742372319102,0.00021939417638350278,-33263.83984375,1963.524658203125,129.94595336914062,-24085.2265625,0.0,0.0,0.0,0.0,2.499999936844688e-05,0.02500000037252903,1000.0999145507812,100000000.0,0.30000001192092896
304,1,0.26501819491386414,0.2775000035762787,-0.0010753392707556486,0.00026953633641824126,-30977.150390625,2086.373291015625,148.04266357421875,-22381.974609375,0.0,0.0,0.0,0.0,2.499999936844688e-05,0.02500000037252903,1000.09130859375,100000000.0,0.30000001192092896
305,1,0.27001747488975525,0.27250000834465027,-0.0010171843459829688,0.0002353068848606199,-37709.6328125,2590.196533203125,134.2908477783203,-27366.1640625,0.0,0.0,0.0,0.0,2.499999936844688e-05,0.02500000037252903,1000.1168823242188,100000000.0,0.30000001192092896
306,1,0.2700175940990448,0.2775000035762787,-0.0010116957128047943,0.0002876564103644341,-34756.17578125,2713.134521484375,150.7857208251953,-25165.5859375,0.0,0.0,0.0,0.0,2.499999936844688e-05,0.02500000037252903,1000.1044921875,100000000.0,0.30000001192092896
307,1,0.2650183141231537,0.2824999988079071,-0.0010705364402383566,0.0003143094072584063,-28797.12109375,2317.52001953125,159.4482421875,-20905.677734375,0.0,0.0,0.0,0.0,2.499999936844688e-05,0.02500000037252903,1000.0828857421875,100000000.0,0.30000001192092896
308,1,0.2650185227394104,0.2874999940395355,-0.0010664574801921844,0.0003537123848218471,-26228.0390625,2325.85546875,164.16262817382812,-18993.361328125,0.0,0.0,0.0,0.0,2.499999936844688e-05,0.02500000037252903,1000.070068359375,100000000.0,0.30000001192092896
309,1,0.27001774311065674,0.2824999988079071,-0.0010074054589495063,0.0003338101669214666,-31953.974609375,3015.509033203125,159.8010711669922,-23248.24609375,0.0,0.0,0.0,0.0,2.499999936844688e-05,0.02500000037252903,1000.0931396484375,100000000.0,0.30000001192092896
310,1,0.27001795172691345,0.2874999940395355,-0.0010043070651590824,0.00037376664113253355,-28722.712890625,3023.861572265625,161.3372039794922,-20843.212890625,0.0,0.0,0.0,0.0,2.499999936844688e-05,0.02500000037252903,1000.0816040039062,100000000.0,0.30000001192092896
311,1,0.2650187611579895,0.29249998927116394,-0.0010641454719007015,0.0003882873279508203,-24026.91796875,1903.69140625,164.6258087158203,-17484.58984375,0.0,0.0,0.0,0.0,2.499999936844688e-05,0.02500000037252903,1000.0635986328125,100000000.0,0.30000001192092896
312,1,0.26501893997192383,0.29750001430511475,-0.0010636018123477697,0.0004180337709840387,-21750.658203125,1807.2574462890625,160.83934020996094,-15790.490234375,0.0,0.0,0.0,0.0,2.499999936844688e-05,0.02500000037252903,1000.05322265625,100000000.0,0.30000001192092896
313,1,0.27001819014549255,0.29249998927116394,-0.0010035529267042875,0.00040834309766069055,-25967.400390625,2517.013427734375,157.95242309570312,-18938.896484375,0.0,0.0,0.0,0.0,2.499999936844688e-05,0.02500000037252903,1000.0687255859375,100000000.0,0.30000001192092896
314,1,0.2700183689594269,0.29750001430511475,-0.0010051439749076962,0.000437538925325498,-23193.11328125,2420.60107421875,149.64837646484375,-16873.5546875,0.0,0.0,0.0,0.0,2.499999936844688e-05,0.02500000037252903,1000.0586547851562,100000000.0,0.30000001192092896
315,1,0.26501911878585815,0.30250000953674316,-0.001065274584107101,0.00044396219891496,-19154.27734375,1557.7244873046875,153.7781982421875,-13959.2314453125,0.0,0.0,0.0,0.0,2.499999936844688e-05,0.02500000037252903,1000.0487670898438,100000000.0,0.30000001192092896
316,1,0.2650192677974701,0.3075000047683716,-0.0010691701900213957,0.0004660752892959863,-15892.32421875,1634.6768798828125,143.4422607421875,-11530.8271484375,0.0,0.0,0.0,0.0,2.499999936844688e-05,0.02500000037252903,1000.0457763671875,100000000.0,0.30000001192092896
317,1,0.2700185477733612,0.30250000953674316,-0.0010097790509462357,0.00046266609570011497,-21308.66015625,2268.90283203125,145.98031616210938,-15576.1513671875,0.0,0.0,0.0,0.0,2.499999936844688e-05,0.02500000037252903,1000.0494384765625,100000000.0,0.30000001192092896
318,1,0.2750188410282135,0.19750000536441803,-0.0009383399737998843,-0.0005168844945728779,-19971.921875,-2221.75439453125,-98.6161880493164,-14580.9482421875,0.0,0.0,0.0,0.0,2.499999936844688e-05,0.02500000037252903,1000.0491333007812,100000000.0,0.30000001192092896
319,1,0.2800181806087494,0.19750000536441803,-0.0008766274549998343,-0.000528763746842742,-16592.685546875,-2322.2392578125,-61.56977844238281,-12062.263671875,0.0,0.0,0.0,0.0,2.499999936844688e-05,0.02500000037252903,1000.0475463867188,100000000.0,0.30000001192092896
320,1,0.27501848340034485,0.20250000059604645,-0.000931405636947602,-0.0004946388071402907,-20873.09765625,-3261.81689453125,-99.650146484375,-15210.9345703125,0.0,0.0,0.0,0.0,2.499999936844688e-05,0.02500000037252903,1000.0504760742188,100000000.0,0.30000001192092896
321,1,0.2750181257724762,0.20749999582767487,-0.0009255691547878087,-0.00047053294838406146,-23469.81640625,-3246.078857421875,-110.47081756591797,-17145.017578125,0.0,0.0,0.0,0.0,2.499999936844688e-05,0.02500000037252903,1000.0606689453125,100000000.0,0.30000001192092896
322,1,0.2800178825855255,0.20250000059604645,-0.0008680727332830429,-0.0005067072343081236,-20009.576171875,-3976.71533203125,-78.07917022705078,-14587.1513671875,0.0,0.0,0.0,0.0,2.499999936844688e-05,0.02500000037252903,1000.0499267578125,100000000.0,0.30000001192092896
323,1,0.2800176441669464,0.20749999582767487,-0.0008585850009694695,-0.0004836621228605509,-23413.416015625,-3960.9990234375,-89.8697738647461,-17121.9765625,0.0,0.0,0.0,0.0,2.499999936844688e-05,0.02500000037252903,1000.0636596679688,100000000.0,0.30000001192092896
324,1,0.27501779794692993,0.21250000596046448,-0.0009220563806593418,-0.00044228057959116995,-26247.205078125,-3979.846435546875,-118.8165512084961,-19103.763671875,0.0,0.0,0.0,0.0,2.499999936844688e-05,0.02500000037252903,1000.0713500976562,100000000.0,0.30000001192092896
325,1,0.2750175893306732,0.2175000011920929,-0.0009208655683323741,-0.00040988207911141217,-29566.6015625,-3918.13525390625,-124.68802642822266,-21576.001953125,0.0,0.0,0.0,0.0,2.499999936844688e-05,0.02500000037252903,1000.08642578125,100000000.0,0.30000001192092896
326,1,0.28001734614372253,0.21250000596046448,-0.000851482676807791,-0.0004562880494631827,-26834.228515625,-4858.96337890625,-99.1303939819336,-19551.857421875,0.0,0.0,0.0,0.0,2.499999936844688e-05,0.02500000037252903,1000.076171875,100000000.0,0.30000001192092896
327,1,0.2800171375274658,0.2175000011920929,-0.0008467636653222144,-0.00042458539246581495,-30663.14453125,-4797.27587890625,-105.86140441894531,-22403.271484375,0.0,0.0,0.0,0.0,2.499999936844688e-05,0.02500000037252903,1000.0923461914062,100000000.0,0.30000001192092896
328,1,0.2750173509120941,0.2224999964237213,-0.0009222400258295238,-0.0003718909283634275,-32773.0859375,-4143.84423828125,-127.30276489257812,-23809.1328125,0.0,0.0,0.0,0.0,2.499999936844688e-05,0.02500000037252903,1000.0982666015625,100000000.0,0.30000001192092896
329,1,0.2750171720981598,0.22750000655651093,-0.0009261752129532397,-0.00032830616692081094,-36383.51953125,-4224.9794921875,-126.66075897216797,-26497.8828125,0.0,0.0,0.0,0.0,2.499999936844688e-05,0.02500000037252903,1000.114501953125,100000000.0,0.30000001192092896
330,1,0.2800169289112091,0.2224999964237213,-0.0008453160407952964,-0.0003870526561513543,-34532.99609375,-5120.33251953125,-111.7917251586914,-25121.150390625,0.0,0.0,0.0,0.0,2.499999936844688e-05,0.02500000037252903,1000.1090698242188,100000000.0,0.30000001192092896
331,1,0.28001669049263,0.22750000655651093,-0.0008471373002976179,-0.00034368838532827795,-38989.4765625,-5201.43701171875,-116.92250061035156,-28440.248046875,0.0,0.0,0.0,0.0,2.499999936844688e-05,0.02500000037252903,1000.1233520507812,100000000.0,0.30000001192092896
332,1,0.27501702308654785,0.23250000178813934,-0.0009316784562543035,-0.00027794038760475814,-39523.046875,-3565.623779296875,-117.84265899658203,-28647.9453125,0.0,0.0,0.0,0.0,2.499999936844688e-05,0.02500000037252903,1000.1239624023438,100000000.0,0.30000001192092896
333,1,0.2750168740749359,0.23749999701976776,-0.0009387524914927781,-0.000220794347114861,-42824.515625,-3549.912841796875,-100.8474349975586,-31105.64453125,0.0,0.0,0.0,0.0,2.499999936844688e-05,0.02500000037252903,1000.13330078125,100000000.0,0.30000001192092896
334,1,0.2800165116786957,0.23250000178813934,-0.0008513851207681,-0.0002925246371887624,-43131.6796875,-4489.62939453125,-113.04132843017578,-31307.34765625,0.0,0.0,0.0,0.0,2.499999936844688e-05,0.02500000037252903,1000.1361694335938,100000000.0,0.30000001192092896
335,1,0.2800162732601166,0.23749999701976776,-0.0008580639841966331,-0.00023356212477665395,-47689.58984375,-4473.9013671875,-100.15025329589844,-34700.45703125,0.0,0.0,0.0,0.0,2.499999936844688e-05,0.02500000037252903,1000.1537475585938,100000000.0,0.30000001192092896
336,1,0.27501678466796875,0.24250000715255737,-0.0009449251228943467,-0.00015782396076247096,-45147.421875,-1968.9910888671875,-74.47605895996094,-32673.587890625,0.0,0.0,0.0,0.0,2.499999936844688e-05,0.02500000037252903,1000.142822265625,100000000.0,0.30000001192092896
337,1,0.275016725063324,0.2475000023841858,-0.0009501965250819921,-8.902920671971515e-05,-47031.08203125,-1907.328857421875,-38.72747039794922,-34076.4453125,0.0,0.0,0.0,0.0,2.499999936844688e-05,0.02500000037252903,1000.150390625,100000000.0,0.30000001192092896
338,1,0.2800161838531494,0.24250000715255737,-0.0008640835294499993,-0.0001675121020525694,-50985.81640625,-2502.122314453125,-75.92787170410156,-36958.77734375,0.0,0.0,0.0,0.0,2.499999936844688e-05,0.02500000037252903,1000.1649169921875,100000000.0,0.30000001192092896
339,1,0.280016154050827,0.2475000023841858,-0.0008694453281350434,-9.437431435799226e-05,-53679.66796875,-2440.47998046875,-40.37474060058594,-38965.01171875,0.0,0.0,0.0,0.0,2.499999936844688e-05,0.02500000037252903,1000.172607421875,100000000.0,0.30000001192092896
340,1,0.2750166952610016,0.2524999976158142,-0.0009528636583127081,-1.8279575670021586e-05,-47727.1640625,149.89939880371094,0.40673497319221497,-34540.67578125,0.0,0.0,0.0,0.0,2.499999936844688e-05,0.02500000037252903,1000.1531982421875,100000000.0,0.30000001192092896
341,1,0.275016725063324,0.2574999928474426,-0.000952922971919179,5.442511246656068e-05,-47417.02734375,158.2142333984375,42.92692947387695,-34309.65234375,0.0,0.0,0.0,0.0,2.499999936844688e-05,0.02500000037252903,1000.1521606445312,100000000.0,0.30000001192092896
342,1,0.28001612424850464,0.2524999976158142,-0.0008721313788555562,-1.882711694634054e-05,-54703.51953125,236.43536376953125,-1.297355055809021,-39661.20703125,0.0,0.0,0.0,0.0,2.499999936844688e-05,0.02500000037252903,1000.1763305664062,100000000.0,0.30000001192092896
343,1,0.28001612424850464,0.2574999928474426,-0.000872138305567205,5.912960841669701e-05,-54278.265625,244.76136779785156,41.30472183227539,-39344.64453125,0.0,0.0,0.0,0.0,2.499999936844688e-05,0.02500000037252903,1000.1743774414062,100000000.0,0.30000001192092896
344,1,0.27501681447029114,0.26249998807907104,-0.0009506945498287678,0.00012422526197042316,-46198.47265625,2038.0616455078125,80.89041137695312,-33482.26171875,0.0,0.0,0.0,0.0,2.499999936844688e-05,0.02500000037252903,1000.1470336914062,100000000.0,0.30000001192092896
345,1,0.2750168740749359,0.26750001311302185,-0.0009461795561946929,0.00019112060545012355,-43799.63671875,1941.6986083984375,114.29737091064453,-31696.619140625,0.0,0.0,0.0,0.0,2.499999936844688e-05,0.02500000037252903,1000.13720703125,100000000.0,0.30000001192092896
346,1,0.2800161838531494,0.26249998807907104,-0.0008698588353581727,0.00013360296725295484,-52549.3515625,2711.77099609375,79.2982177734375,-38153.13671875,0.0,0.0,0.0,0.0,2.499999936844688e-05,0.02500000037252903,1000.1686401367188,100000000.0,0.30000001192092896
347,1,0.2800162434577942,0.26750001311302185,-0.000865293899551034,0.0002045928267762065,-49191.24609375,2615.433837890625,112.68311309814453,-35653.05859375,0.0,0.0,0.0,0.0,2.499999936844688e-05,0.02500000037252903,1000.1602172851562,100000000.0,0.30000001192092896
348,1,0.2750169634819031,0.27250000834465027,-0.0009415009990334511,0.0002516739768907428,-41087.0390625,3471.804931640625,138.45376586914062,-29852.25,0.0,0.0,0.0,0.0,2.499999936844688e-05,0.02500000037252903,1000.1280517578125,100000000.0,0.30000001192092896
349,1,0.2750171422958374,0.2775000035762787,-0.0009366633603349328,0.0003058876027353108,-37468.16015625,3594.695068359375,153.36026000976562,-27157.638671875,0.0,0.0,0.0,0.0,2.499999936844688e-05,0.02500000037252903,1000.1171264648438,100000000.0,0.30000001192092896
350,1,0.28001633286476135,0.27250000834465027,-0.0008610757067799568,0.0002680264296941459,-45476.0859375,4469.94482421875,135.0694122314453,-33097.32421875,0.0,0.0,0.0,0.0,2.499999936844688e-05,0.02500000037252903,1000.1464233398438,100000000.0,0.30000001192092896
351,1,0.2800167202949524,0.2775000035762787,-0.0008572046062909067,0.00032390691922046244,-40701.5859375,4592.85205078125,146.4583740234375,-29541.9296875,0.0,0.0,0.0,0.0,2.499999936844688e-05,0.02500000037252903,1000.1275634765625,100000000.0,0.30000001192092896
352,1,0.27501732110977173,0.2824999988079071,-0.00093378423480317,0.0003529599343892187,-34047.51953125,3966.494140625,159.97654724121094,-24811.177734375,0.0,0.0,0.0,0.0,2.499999936844688e-05,0.02500000037252903,1000.1033325195312,100000000.0,0.30000001192092896
353,1,0.27501749992370605,0.2874999940395355,-0.0009328580345027149,0.00039288916741497815,-30160.67578125,3974.84033203125,158.30360412597656,-21915.83984375,0.0,0.0,0.0,0.0,2.499999936844688e-05,0.02500000037252903,1000.089599609375,100000000.0,0.30000001192092896
354,1,0.2800168991088867,0.2824999988079071,-0.0008562433067709208,0.0003716682840604335,-36286.35546875,5018.77685546875,149.1180419921875,-26482.11328125,0.0,0.0,0.0,0.0,2.499999936844688e-05,0.02500000037252903,1000.1141967773438,100000000.0,0.30000001192092896
355,1,0.28001710772514343,0.2874999940395355,-0.0008581826696172357,0.0004113093891646713,-31461.58203125,5027.1416015625,143.04747009277344,-22889.291015625,0.0,0.0,0.0,0.0,2.499999936844688e-05,0.02500000037252903,1000.0955810546875,100000000.0,0.30000001192092896
356,1,0.2750176787376404,0.29249998927116394,-0.000934649258852005,0.0004268480115570128,-26869.322265625,3317.1591796875,150.71331787109375,-19631.744140625,0.0,0.0,0.0,0.0,2.499999936844688e-05,0.02500000037252903,1000.0744018554688,100000000.0,0.30000001192092896
357,1,0.2750178575515747,0.29750001430511475,-0.0009391579078510404,0.000454836233984679,-23618.99609375,3220.734375,137.20730590820312,-17211.060546875,0.0,0.0,0.0,0.0,2.499999936844688e-05,0.02500000037252903,1000.0643920898438,100000000.0,0.30000001192092896
358,1,0.28001731634140015,0.29249998927116394,-0.0008632370736449957,0.0004444077785592526,-27196.375,4216.44287109375,131.7200927734375,-19899.666015625,0.0,0.0,0.0,0.0,2.499999936844688e-05,0.02500000037252903,1000.0791625976562,100000000.0,0.30000001192092896
359,1,0.28001752495765686,0.29750001430511475,-0.0008714066934771836,0.0004709632776211947,-22865.494140625,4120.046875,115.13585662841797,-16674.931640625,0.0,0.0,0.0,0.0,2.499999936844688e-05,0.02500000037252903,1000.0636596679688,100000000.0,0.30000001192092896
360,1,0.2750180959701538,0.30250000953674316,-0.0009452644735574722,0.0004800728056579828,-22407.314453125,2245.76123046875,135.51907348632812,-16380.955078125,0.0,0.0,0.0,0.0,2.499999936844688e-05,0.02500000037252903,1000.0577392578125,100000000.0,0.30000001192092896
361,1,0.2800176739692688,0.30250000953674316,-0.000879190512932837,0.0004958335775882006,-18739.177734375,2397.00927734375,94.51519012451172,-13647.107421875,0.0,0.0,0.0,0.0,2.499999936844688e-05,0.02500000037252903,1000.0487670898438,100000000.0,0.30000001192092896
362,1,0.2850175201892853,0.20250000059604645,-0.0008034976781345904,-0.0005141934962011874,-19936.431640625,-5000.71142578125,-58.2253303527832,-14553.9091796875,0.0,0.0,0.0,0.0,2.499999936844688e-05,0.02500000037252903,1000.050048828125,100000000.0,0.30000001192092896
363,1,0.285017192363739,0.20749999582767487,-0.0007874509319663048,-0.0004924476961605251,-24150.12109375,-4984.96630859375,-70.68183135986328,-17691.5390625,0.0,0.0,0.0,0.0,2.499999936844688e-05,0.02500000037252903,1000.066162109375,100000000.0,0.30000001192092896
364,1,0.29001694917678833,0.20749999582767487,-0.0007132500177249312,-0.0004996315110474825,-24759.630859375,-6163.17041015625,-45.540340423583984,-18173.310546875,0.0,0.0,0.0,0.0,2.499999936844688e-05,0.02500000037252903,1000.0687255859375,100000000.0,0.30000001192092896
365,1,0.2850170135498047,0.21250000596046448,-0.00077406334457919,-0.0004662102728616446,-28219.576171875,-5935.32666015625,-80.61779022216797,-20596.181640625,0.0,0.0,0.0,0.0,2.499999936844688e-05,0.02500000037252903,1000.0819702148438,100000000.0,0.30000001192092896
366,1,0.28501665592193604,0.2175000011920929,-0.0007633395143784583,-0.0004354804987087846,-32567.443359375,-5873.62939453125,-88.03410339355469,-23833.923828125,0.0,0.0,0.0,0.0,2.499999936844688e-05,0.02500000037252903,1000.0987548828125,100000000.0,0.30000001192092896
367,1,0.2900165319442749,0.21250000596046448,-0.0006938388687558472,-0.00047467168769799173,-29487.326171875,-7032.919921875,-57.251121520996094,-21549.109375,0.0,0.0,0.0,0.0,2.499999936844688e-05,0.02500000037252903,1000.08740234375,100000000.0,0.30000001192092896
368,1,0.2900162935256958,0.2175000011920929,-0.0006767220329493284,-0.00044469660497270525,-33629.796875,-6971.2275390625,-54.439537048339844,-24633.640625,0.0,0.0,0.0,0.0,2.499999936844688e-05,0.02500000037252903,1000.102783203125,100000000.0,0.30000001192092896
369,1,0.2850164771080017,0.2224999964237213,-0.0007568364380858839,-0.0003991908160969615,-37126.609375,-6421.265625,-97.03827667236328,-27068.990234375,0.0,0.0,0.0,0.0,2.499999936844688e-05,0.02500000037252903,1000.1168212890625,100000000.0,0.30000001192092896
370,1,0.28501617908477783,0.22750000655651093,-0.0007545565604232252,-0.00035733910044655204,-42433.9765625,-6502.33349609375,-107.62996673583984,-31021.453125,0.0,0.0,0.0,0.0,2.499999936844688e-05,0.02500000037252903,1000.1322631835938,100000000.0,0.30000001192092896
371,1,0.2900160551071167,0.2224999964237213,-0.0006645047687925398,-0.0004096818156540394,-38459.28515625,-7821.234375,-58.45478439331055,-28079.9609375,0.0,0.0,0.0,0.0,2.499999936844688e-05,0.02500000037252903,1000.1190185546875,100000000.0,0.30000001192092896
372,1,0.2900158762931824,0.22750000655651093,-0.0006571837002411485,-0.00036962577723897994,-44478.69140625,-7902.279296875,-69.29405975341797,-32562.376953125,0.0,0.0,0.0,0.0,2.499999936844688e-05,0.02500000037252903,1000.1398315429688,100000000.0,0.30000001192092896
373,1,0.2850160598754883,0.23250000178813934,-0.0007559224613942206,-0.0003064833290409297,-47572.75,-5891.98779296875,-108.4651107788086,-34596.03515625,0.0,0.0,0.0,0.0,2.499999936844688e-05,0.02500000037252903,1000.1517944335938,100000000.0,0.30000001192092896
374,1,0.28501594066619873,0.23749999701976776,-0.0007609394961036742,-0.0002466240548528731,-53380.7265625,-5876.2783203125,-99.5434799194336,-38921.21484375,0.0,0.0,0.0,0.0,2.499999936844688e-05,0.02500000037252903,1000.1712646484375,100000000.0,0.30000001192092896
375,1,0.29001584649086,0.23250000178813934,-0.0006546101067215204,-0.00031939090695232153,-51482.875,-7575.421875,-72.35533142089844,-37494.15234375,0.0,0.0,0.0,0.0,2.499999936844688e-05,0.02500000037252903,1000.16455078125,100000000.0,0.30000001192092896
376,1,0.29001563787460327,0.23749999701976776,-0.0006567927775904536,-0.00025897749583236873,-60421.5546875,-7559.69287109375,-67.64330291748047,-44150.8828125,0.0,0.0,0.0,0.0,2.499999936844688e-05,0.02500000037252903,1000.1959228515625,100000000.0,0.30000001192092896
377,1,0.28501588106155396,0.24250000715255737,-0.00076570815872401,-0.00017793050210457295,-57631.10546875,-3343.77490234375,-77.4115982055664,-41845.36328125,0.0,0.0,0.0,0.0,2.499999936844688e-05,0.02500000037252903,1000.18701171875,100000000.0,0.30000001192092896
378,1,0.28501585125923157,0.2475000023841858,-0.0007702286238782108,-0.00010040264896815643,-61127.55859375,-3282.147216796875,-42.06949996948242,-44450.22265625,0.0,0.0,0.0,0.0,2.499999936844688e-05,0.02500000037252903,1000.1986083984375,100000000.0,0.30000001192092896
379,1,0.29001516103744507,0.24250000715255737,-0.0006593145662918687,-0.00018791107868310064,-66946.7890625,-4337.365234375,-52.376564025878906,-48725.25,0.0,0.0,0.0,0.0,2.499999936844688e-05,0.02500000037252903,1000.218017578125,100000000.0,0.30000001192092896
380,1,0.29001492261886597,0.2475000023841858,-0.0006621629581786692,-0.00010619291424518451,-72008.8203125,-4275.736328125,-26.548480987548828,-52495.44140625,0.0,0.0,0.0,0.0,2.499999936844688e-05,0.02500000037252903,1000.2371215820312,100000000.0,0.30000001192092896
381,1,0.28501585125923157,0.2524999976158142,-0.0007725018076598644,-1.9925415472243913e-05,-62475.05859375,367.0393371582031,-3.0773184299468994,-45373.91015625,0.0,0.0,0.0,0.0,2.499999936844688e-05,0.02500000037252903,1000.2041625976562,100000000.0,0.30000001192092896
382,1,0.28501585125923157,0.2574999928474426,-0.0007725257892161608,6.350134935928509e-05,-61934.32421875,375.35406494140625,39.56501007080078,-44971.24609375,0.0,0.0,0.0,0.0,2.499999936844688e-05,0.02500000037252903,1000.2020263671875,100000000.0,0.30000001192092896
383,1,0.2900146543979645,0.2524999976158142,-0.0006636469042859972,-2.108145235979464e-05,-74047.28125,514.743896484375,-1.4410890340805054,-53925.57421875,0.0,0.0,0.0,0.0,2.499999936844688e-05,0.02500000037252903,1000.2438354492188,100000000.0,0.30000001192092896
384,1,0.29001474380493164,0.2574999928474426,-0.0006637540063820779,6.742353434674442e-05,-73355.34375,523.0586547851562,22.9451904296875,-53410.125,0.0,0.0,0.0,0.0,2.499999936844688e-05,0.02500000037252903,1000.2417602539062,100000000.0,0.30000001192092896
385,1,0.28501585125923157,0.26249998807907104,-0.0007706574979238212,0.00014278515300247818,-59697.01171875,3751.48779296875,77.54778289794922,-43418.609375,0.0,0.0,0.0,0.0,2.499999936844688e-05,0.02500000037252903,1000.1941528320312,100000000.0,0.30000001192092896
386,1,0.28501588106155396,0.26750001311302185,-0.0007668963517062366,0.0002179259026888758,-55388.23828125,3655.197998046875,110.87110900878906,-40209.37109375,0.0,0.0,0.0,0.0,2.499999936844688e-05,0.02500000037252903,1000.178466796875,100000000.0,0.30000001192092896
387,1,0.2900148630142212,0.26249998807907104,-0.0006627428228966892,0.0001513148017693311,-69889.0234375,5001.82421875,50.31370544433594,-50950.546875,0.0,0.0,0.0,0.0,2.499999936844688e-05,0.02500000037252903,1000.2296752929688,100000000.0,0.30000001192092896
388,1,0.290015310049057,0.26750001311302185,-0.0006606061942875385,0.00023059293744154274,-63235.84375,4905.6171875,80.6613540649414,-45996.65625,0.0,0.0,0.0,0.0,2.499999936844688e-05,0.02500000037252903,1000.2069091796875,100000000.0,0.30000001192092896
389,1,0.2850159704685211,0.27250000834465027,-0.0007642130949534476,0.0002838493965100497,-50695.06640625,5908.92431640625,131.5406951904297,-36968.07421875,0.0,0.0,0.0,0.0,2.499999936844688e-05,0.02500000037252903,1000.1614379882812,100000000.0,0.30000001192092896
390,1,0.28501614928245544,0.2775000035762787,-0.000762611860409379,0.0003405580355320126,-44772.69921875,6031.73486328125,139.5559844970703,-32557.26171875,0.0,0.0,0.0,0.0,2.499999936844688e-05,0.02500000037252903,1000.142333984375,100000000.0,0.30000001192092896
391,1,0.2900157868862152,0.27250000834465027,-0.000660373130813241,0.00029893737519159913,-56457.41015625,7546.7158203125,101.45408630371094,-41243.125,0.0,0.0,0.0,0.0,2.499999936844688e-05,0.02500000037252903,1000.1814575195312,100000000.0,0.30000001192092896
392,1,0.29001584649086,0.2775000035762787,-0.0006620576023124158,0.00035634892992675304,-48565.8515625,7669.505859375,112.69892120361328,-35367.02734375,0.0,0.0,0.0,0.0,2.499999936844688e-05,0.02500000037252903,1000.1533813476562,100000000.0,0.30000001192092896
393,1,0.2850162982940674,0.2824999988079071,-0.000765691976994276,0.000388099200790748,-39367.46875,6428.98046875,138.4342803955078,-28793.017578125,0.0,0.0,0.0,0.0,2.499999936844688e-05,0.02500000037252903,1000.1212768554688,100000000.0,0.30000001192092896
394,1,0.2850167453289032,0.2874999940395355,-0.0007734430837444961,0.00042647187365218997,-33608.71484375,6437.3798828125,128.17372131347656,-24505.044921875,0.0,0.0,0.0,0.0,2.499999936844688e-05,0.02500000037252903,1000.1041259765625,100000000.0,0.30000001192092896
395,1,0.2900160253047943,0.2824999988079071,-0.0006700506201013923,0.0004035192832816392,-42018.85546875,7927.1015625,114.60962677001953,-30784.05859375,0.0,0.0,0.0,0.0,2.499999936844688e-05,0.02500000037252903,1000.1309204101562,100000000.0,0.30000001192092896
396,1,0.29001620411872864,0.2874999940395355,-0.0006843508454039693,0.000440445845015347,-35835.421875,7935.45458984375,107.18666076660156,-26179.912109375,0.0,0.0,0.0,0.0,2.499999936844688e-05,0.02500000037252903,1000.1113891601562,100000000.0,0.30000001192092896
397,1,0.2850169539451599,0.29249998927116394,-0.000785056094173342,0.0004578722582664341,-28349.1484375,5531.7451171875,113.5372085571289,-20790.939453125,0.0,0.0,0.0,0.0,2.499999936844688e-05,0.02500000037252903,1000.082275390625,100000000.0,0.30000001192092896
398,1,0.2850172221660614,0.29750001430511475,-0.0008005257695913315,0.0004823011695407331,-22909.81640625,5435.3662109375,94.52497100830078,-16740.044921875,0.0,0.0,0.0,0.0,2.499999936844688e-05,0.02500000037252903,1000.0638427734375,100000000.0,0.30000001192092896
399,1,0.29001665115356445,0.29249998927116394,-0.0007024287478998303,0.00046970450785011053,-29402.728515625,7050.98193359375,85.14191436767578,-21616.6328125,0.0,0.0,0.0,0.0,2.499999936844688e-05,0.02500000037252903,1000.08740234375,100000000.0,0.30000001192092896
400,1,0.29501622915267944,0.21250000596046448,-0.0006036612903699279,-0.0004784663615282625,-30782.03515625,-8055.35595703125,-35.81999206542969,-22493.64453125,0.0,0.0,0.0,0.0,2.499999936844688e-05,0.02500000037252903,1000.092529296875,100000000.0,0.30000001192092896
401,1,0.2950158715248108,0.2175000011920929,-0.0005802939995191991,-0.00044767989311367273,-34754.0859375,-7993.689453125,-21.806730270385742,-25452.013671875,0.0,0.0,0.0,0.0,2.499999936844688e-05,0.02500000037252903,1000.1064453125,100000000.0,0.30000001192092896
402,1,0.30001571774482727,0.2175000011920929,-0.00048125750618055463,-0.0004477245092857629,-33781.8125,-8967.1767578125,46.570796966552734,-24705.046875,0.0,0.0,0.0,0.0,2.499999936844688e-05,0.02500000037252903,1000.1029663085938,100000000.0,0.30000001192092896
403,1,0.295015811920166,0.2224999964237213,-0.0005606217309832573,-0.0004133646434638649,-39925.1328125,-9496.4365234375,-20.170825958251953,-29191.044921875,0.0,0.0,0.0,0.0,2.499999936844688e-05,0.02500000037252903,1000.122802734375,100000000.0,0.30000001192092896
404,1,0.29501578211784363,0.22750000655651093,-0.0005446472787298262,-0.00037551895366050303,-46671.55078125,-9577.5185546875,-30.912202835083008,-34213.37109375,0.0,0.0,0.0,0.0,2.499999936844688e-05,0.02500000037252903,1000.1453857421875,100000000.0,0.30000001192092896
405,1,0.3000156283378601,0.2224999964237213,-0.00045504339504987,-0.0004138089425396174,-38571.55078125,-11203.49609375,55.45456314086914,-28193.046875,0.0,0.0,0.0,0.0,2.499999936844688e-05,0.02500000037252903,1000.1177978515625,100000000.0,0.30000001192092896
406,1,0.300014853477478,0.22750000655651093,-0.0004294784739613533,-0.0003775891673285514,-45091.515625,-11284.421875,64.00569152832031,-33048.27734375,0.0,0.0,0.0,0.0,2.499999936844688e-05,0.02500000037252903,1000.1404418945312,100000000.0,0.30000001192092896
407,1,0.29501500725746155,0.23250000178813934,-0.0005334778688848019,-0.0003266792627982795,-55559.40625,-10455.2265625,-36.07366943359375,-40527.3984375,0.0,0.0,0.0,0.0,2.499999936844688e-05,0.02500000037252903,1000.178955078125,100000000.0,0.30000001192092896
408,1,0.2950141131877899,0.23749999701976776,-0.000527102209161967,-0.0002668471133802086,-67612.8203125,-10439.21484375,-35.65512466430664,-49502.1328125,0.0,0.0,0.0,0.0,2.499999936844688e-05,0.02500000037252903,1000.2195434570312,100000000.0,0.30000001192092896
409,1,0.30001360177993774,0.23250000178813934,-0.0004077809862792492,-0.00032975038629956543,-58916.42578125,-14182.544921875,79.64456939697266,-43016.640625,0.0,0.0,0.0,0.0,2.499999936844688e-05,0.02500000037252903,1000.188720703125,100000000.0,0.30000001192092896
410,1,0.30001193284988403,0.23749999701976776,-0.0003899565781466663,-0.0002702937345020473,-81134.0078125,-14165.7607421875,102.35923767089844,-59560.96484375,0.0,0.0,0.0,0.0,2.499999936844688e-05,0.02500000037252903,1000.2622680664062,100000000.0,0.30000001192092896
411,1,0.2950132489204407,0.24250000715255737,-0.0005224873893894255,-0.00019459050963632762,-76418.390625,-5927.10205078125,-27.353071212768555,-55746.65234375,0.0,0.0,0.0,0.0,2.499999936844688e-05,0.02500000037252903,1000.2505493164062,100000000.0,0.30000001192092896
412,1,0.29501256346702576,0.2475000023841858,-0.0005196277052164078,-0.00010991050658049062,-83034.8671875,-5865.39990234375,-11.167454719543457,-60673.1015625,0.0,0.0,0.0,0.0,2.499999936844688e-05,0.02500000037252903,1000.2721557617188,100000000.0,0.30000001192092896
413,1,0.3000108599662781,0.24250000715255737,-0.0003761393891181797,-0.0001975285413209349,-95453.2734375,-7670.2255859375,95.40843200683594,-69916.4765625,0.0,0.0,0.0,0.0,2.499999936844688e-05,0.02500000037252903,1000.3129272460938,100000000.0,0.30000001192092896
414,1,0.3000100255012512,0.2475000023841858,-0.0003663339011836797,-0.00011145431926706806,-102915.2734375,-7608.45556640625,58.81965637207031,-75473.0390625,0.0,0.0,0.0,0.0,2.499999936844688e-05,0.02500000037252903,1000.339111328125,100000000.0,0.30000001192092896
415,1,0.29501232504844666,0.2524999976158142,-0.0005184619803912938,-2.2043877834221348e-05,-85795.9921875,720.6356811523438,0.03177701309323311,-62654.875,0.0,0.0,0.0,0.0,2.499999936844688e-05,0.02500000037252903,1000.2826538085938,100000000.0,0.30000001192092896
416,1,0.2950124740600586,0.2574999928474426,-0.0005189888179302216,6.901017331983894e-05,-84949.9296875,728.952392578125,6.244597434997559,-62025.41796875,0.0,0.0,0.0,0.0,2.499999936844688e-05,0.02500000037252903,1000.2793579101562,100000000.0,0.30000001192092896
417,1,0.3000098168849945,0.2524999976158142,-0.0003617572656366974,-2.2500231352751143e-05,-106634.78125,872.2589721679688,15.516951560974121,-78188.0234375,0.0,0.0,0.0,0.0,2.499999936844688e-05,0.02500000037252903,1000.3526611328125,100000000.0,0.30000001192092896
418,1,0.30000996589660645,0.2574999928474426,-0.000362415419658646,6.933285476407036e-05,-106792.640625,880.5916748046875,-34.5352897644043,-78305.2578125,0.0,0.0,0.0,0.0,2.499999936844688e-05,0.02500000037252903,1000.3523559570312,100000000.0,0.30000001192092896
419,1,0.2950129508972168,0.26249998807907104,-0.0005210433155298233,0.00015617546159774065,-80189.0078125,7146.1669921875,23.02322769165039,-58572.8984375,0.0,0.0,0.0,0.0,2.499999936844688e-05,0.02500000037252903,1000.2634887695312,100000000.0,0.30000001192092896
420,1,0.29501357674598694,0.26750001311302185,-0.0005246319342404604,0.00023945237626321614,-71206.6875,7050.08740234375,50.367557525634766,-51883.9296875,0.0,0.0,0.0,0.0,2.499999936844688e-05,0.02500000037252903,1000.2322387695312,100000000.0,0.30000001192092896
421,1,0.30001044273376465,0.26249998807907104,-0.00036803007242269814,0.00015845161397010088,-101644.53125,9544.3173828125,-65.2262954711914,-74518.703125,0.0,0.0,0.0,0.0,2.499999936844688e-05,0.02500000037252903,1000.3348999023438,100000000.0,0.30000001192092896
422,1,0.30001160502433777,0.26750001311302185,-0.00037859176518395543,0.00024485596804879606,-91031.6640625,9448.5810546875,-76.58697509765625,-66617.203125,0.0,0.0,0.0,0.0,2.499999936844688e-05,0.02500000037252903,1000.2986450195312,100000000.0,0.30000001192092896
423,1,0.295014351606369,0.27250000834465027,-0.0005312769790180027,0.0003101843176409602,-62333.40234375,9934.1005859375,71.2840805053711,-45596.1328125,0.0,0.0,0.0,0.0,2.499999936844688e-05,0.02500000037252903,1000.2014770507812,100000000.0,0.30000001192092896
424,1,0.2950151860713959,0.2775000035762787,-0.0005409849109128118,0.0003683731483761221,-52500.5234375,10057.060546875,85.77281951904297,-38273.3828125,0.0,0.0,0.0,0.0,2.499999936844688e-05,0.02500000037252903,1000.1675415039062,100000000.0,0.30000001192092896
425,1,0.3000126779079437,0.27250000834465027,-0.00039376557106152177,0.000317645026370883,-75508.4921875,13191.958984375,-61.93891525268555,-55370.43359375,0.0,0.0,0.0,0.0,2.499999936844688e-05,0.02500000037252903,1000.2454833984375,100000000.0,0.30000001192092896
426,1,0.3000139892101288,0.2775000035762787,-0.000413545873016119,0.00037682169931940734,-54021.59765625,13315.5302734375,-21.255069732666016,-39369.09375,0.0,0.0,0.0,0.0,2.499999936844688e-05,0.02500000037252903,1000.172607421875,100000000.0,0.30000001192092896
427,1,0.295015811920166,0.2824999988079071,-0.0005569806089624763,0.0004151665198151022,-44813.72265625,9590.6455078125,91.0868911743164,-32874.7578125,0.0,0.0,0.0,0.0,2.499999936844688e-05,0.02500000037252903,1000.1398315429688,100000000.0,0.30000001192092896
428,1,0.29501593112945557,0.2874999940395355,-0.0005792659940198064,0.0004505613469518721,-38187.07421875,9598.9814453125,87.22637176513672,-27939.09375,0.0,0.0,0.0,0.0,2.499999936844688e-05,0.02500000037252903,1000.1170043945312,100000000.0,0.30000001192092896
429,1,0.3000149130821228,0.2824999988079071,-0.0004377255099825561,0.00042326710536144674,-40722.078125,11264.3935546875,-3.791555643081665,-29835.24609375,0.0,0.0,0.0,0.0,2.499999936844688e-05,0.02500000037252903,1000.1256103515625,100000000.0,0.30000001192092896
430,1,0.305014967918396,0.2224999964237213,-0.00035069920704700053,-0.00040170722058974206,-36220.17578125,-12822.623046875,131.9967041015625,-26401.60546875,0.0,0.0,0.0,0.0,2.499999936844688e-05,0.02500000037252903,1000.1142578125,100000000.0,0.30000001192092896
431,1,0.30501413345336914,0.22750000655651093,-0.00031337744439952075,-0.0003632430743891746,-42502.59375,-12903.521484375,159.4193115234375,-31080.09375,0.0,0.0,0.0,0.0,2.499999936844688e-05,0.02500000037252903,1000.13623046875,100000000.0,0.30000001192092896
432,1,0.30501192808151245,0.23250000178813934,-0.00027429562760517,-0.00031329516787081957,-61198.2890625,-21789.69140625,195.34182739257812,-44647.7421875,0.0,0.0,0.0,0.0,2.499999936844688e-05,0.02500000037252903,1000.2011108398438,100000000.0,0.30000001192092896
433,1,0.3050096929073334,0.23749999701976776,-0.0002334353484911844,-0.0002518604160286486,-93493.28125,-21771.55859375,239.76365661621094,-68696.9609375,0.0,0.0,0.0,0.0,2.499999936844688e-05,0.02500000037252903,1000.3090209960938,100000000.0,0.30000001192092896
434,1,0.31000831723213196,0.23749999701976776,-7.309448847081512e-05,-0.0002242099872091785,-49278.12890625,-27495.779296875,362.15777587890625,-35727.11328125,0.0,0.0,0.0,0.0,2.499999936844688e-05,0.02500000037252903,1000.166015625,100000000.0,0.30000001192092896
435,1,0.3050084412097931,0.24250000715255737,-0.00020294399291742593,-0.0001814622082747519,-113614.484375,-9738.0673828125,217.33154296875,-83573.8046875,0.0,0.0,0.0,0.0,2.499999936844688e-05,0.02500000037252903,1000.3770141601562,100000000.0,0.30000001192092896
436,1,0.3050077557563782,0.2475000023841858,-0.00018282135715708137,-0.0001020993513520807,-121923.2109375,-9676.328125,128.0441436767578,-89760.0625,0.0,0.0,0.0,0.0,2.499999936844688e-05,0.02500000037252903,1000.4056396484375,100000000.0,0.30000001192092896
437,1,0.31000733375549316,0.24250000715255737,-2.870873322535772e-05,-0.0001582948025316,-46953.81640625,-11455.73046875,284.7950744628906,-34101.890625,0.0,0.0,0.0,0.0,2.499999936844688e-05,0.02500000037252903,1000.1577758789062,100000000.0,0.30000001192092896
438,1,0.31000667810440063,0.2475000023841858,8.092900429801375e-07,-8.869409066392109e-05,-48988.83203125,-11394.240234375,163.38214111328125,-35617.4453125,0.0,0.0,0.0,0.0,2.499999936844688e-05,0.02500000037252903,1000.16455078125,100000000.0,0.30000001192092896
439,1,0.3050074279308319,0.2524999976158142,-0.0001721306034596637,-2.0135850718361326e-05,-126607.8359375,641.4058227539062,30.409950256347656,-93222.0234375,0.0,0.0,0.0,0.0,2.499999936844688e-05,0.02500000037252903,1000.42236328125,100000000.0,0.30000001192092896
440,1,0.3050074875354767,0.2574999928474426,-0.00017086774460040033,6.442659650929272e-05,-127762.5078125,649.7168579101562,-75.57088470458984,-94080.609375,0.0,0.0,0.0,0.0,2.499999936844688e-05,0.02500000037252903,1000.42626953125,100000000.0,0.30000001192092896
441,1,0.31000640988349915,0.2524999976158142,1.7592810763744637e-05,-1.661222086113412e-05,-50589.84375,344.8092346191406,44.01108169555664,-36802.765625,0.0,0.0,0.0,0.0,2.499999936844688e-05,0.02500000037252903,1000.1702880859375,100000000.0,0.30000001192092896
442,1,0.3100065290927887,0.2574999928474426,2.164297620765865e-05,5.79474690312054e-05,-51776.015625,353.1324462890625,-73.3327865600586,-37686.23828125,0.0,0.0,0.0,0.0,2.499999936844688e-05,0.02500000037252903,1000.1746215820312,100000000.0,0.30000001192092896
443,1,0.30500808358192444,0.26249998807907104,-0.0001807543885661289,0.00014895749336574227,-122140.765625,12565.3427734375,-153.34889221191406,-89851.15625,0.0,0.0,0.0,0.0,2.499999936844688e-05,0.02500000037252903,1000.4081420898438,100000000.0,0.30000001192092896
444,1,0.3050090968608856,0.26750001311302185,-0.00020179868442937732,0.0002334562159376219,-109887.796875,12469.6572265625,-202.92486572265625,-80727.5546875,0.0,0.0,0.0,0.0,2.499999936844688e-05,0.02500000037252903,1000.3662109375,100000000.0,0.30000001192092896
445,1,0.31000691652297974,0.26249998807907104,9.46168256632518e-06,0.00013553739700000733,-55714.12890625,14452.1376953125,-160.8447723388672,-40475.76171875,0.0,0.0,0.0,0.0,2.499999936844688e-05,0.02500000037252903,1000.1875610351562,100000000.0,0.30000001192092896
446,1,0.30501049757003784,0.27250000834465027,-0.00023098506790120155,0.00030638533644378185,-87494.2421875,20888.671875,-194.52255249023438,-64190.80078125,0.0,0.0,0.0,0.0,2.499999936844688e-05,0.02500000037252903,1000.2901611328125,100000000.0,0.30000001192092896
447,1,0.30501246452331543,0.2775000035762787,-0.0002683162165340036,0.000367748987628147,-54494.43359375,21013.533203125,-128.1490020751953,-39616.53515625,0.0,0.0,0.0,0.0,2.499999936844688e-05,0.02500000037252903,1000.17919921875,100000000.0,0.30000001192092896
448,2,0.3445197343826294,0.2224999964237213,-1.0079597234725952,7.777869655001268e-07,158.1413116455078,-25.94195556640625,2.868104934692383,106.63936614990234,0.0,0.0,0.0,0.0,2.499999936844688e-05,0.02500000037252903,1000.0,100000000.0,0.30000001192092896
449,2,0.3445197343826294,0.22750000655651093,-1.0079593658447266,5.59356351459428e-07,85.3006820678711,70.42578887939453,3.9683172702789307,52.3964958190918,0.0,0.0,0.0,0.0,2.499999936844688e-05,0.02500000037252903,1000.0,100000000.0,0.30000001192092896
450,2,0.339519739151001,0.23749999701976776,-1.0079549551010132,1.477764044466312e-07,-486.8944396972656,-6.132551193237305,5.934649467468262,-365.926025390625,0.0,0.0,0.0,0.0,2.499999936844688e-05,0.02500000037252903,1000.0,100000000.0,0.30000001192092896
451,2,0.3445197343826294,0.23250000178813934,-1.0079575777053833,4.0723040228840546e-07,59.09893798828125,13.559685707092285,4.360532283782959,39.244564056396484,0.0,0.0,0.0,0.0,2.499999936844688e-05,0.02500000037252903,1000.0,100000000.0,0.30000001192092896
452,2,0.3445197343826294,0.23749999701976776,-1.0079567432403564,3.2140928851731587e-07,58.20920944213867,-5.077291965484619,4.0447516441345215,38.581417083740234,0.0,0.0,0.0,0.0,2.499999936844688e-05,0.02500000037252903,1000.0,100000000.0,0.30000001192092896
453,2,0.339519739151001,0.24250000715255737,-1.0079551935195923,1.6793653401236952e-07,-456.9055480957031,-52.354026794433594,4.416683673858643,-338.1722717285156,0.0,0.0,0.0,0.0,2.499999936844688e-05,0.02500000037252903,1000.0,100000000.0,0.30000001192092896
454,2,0.339519739151001,0.2475000023841858,-1.0079560279846191,2.462860493324115e-07,-456.7554016113281,-125.59337615966797,3.860740900039673,-338.061767578125,0.0,0.0,0.0,0.0,2.499999936844688e-05,0.02500000037252903,1000.0,100000000.0,0.30000001192092896
455,2,0.3445197343826294,0.24250000715255737,-1.0079569816589355,2.96909206554119e-07,66.08539581298828,-52.209571838378906,3.226154327392578,49.26470947265625,0.0,0.0,0.0,0.0,2.499999936844688e-05,0.02500000037252903,1000.0,100000000.0,0.30000001192092896
456,2,0.3445197343826294,0.2475000023841858,-1.007957935333252,3.337297300731734e-07,66.76825714111328,-125.45376586914062,1.904596209526062,49.77161407470703,0.0,0.0,0.0,0.0,2.499999936844688e-05,0.02500000037252903,1000.0,100000000.0,0.30000001192092896
457,2,0.339519739151001,0.2524999976158142,-1.0079584121704102,3.9201145796141645e-07,-439.1339111328125,-49.55094528198242,1.638092041015625,-319.0431823730469,0.0,0.0,0.0,0.0,2.499999936844688e-05,0.02500000037252903,1000.0,100000000.0,0.30000001192092896
458,2,0.339519739151001,0.2574999928474426,-1.007959008216858,6.051113246030582e-07,-423.77911376953125,-59.434478759765625,-2.2513656616210938,-307.6131896972656,0.0,0.0,0.0,0.0,2.499999936844688e-05,0.02500000037252903,1000.0,100000000.0,0.30000001192092896
459,2,0.3445197343826294,0.2524999976158142,-1.007960319519043,4.014904106952599e-07,82.353759765625,-44.36206817626953,-0.1608731597661972,64.06362915039062,0.0,0.0,0.0,0.0,2.499999936844688e-05,0.02500000037252903,1000.0,100000000.0,0.30000001192092896
460,2,0.3445197343826294,0.2574999928474426,-1.0079609155654907,5.001899126000353e-07,103.8520736694336,-54.23239517211914,-2.970248222351074,80.07239532470703,0.0,0.0,0.0,0.0,2.499999936844688e-05,0.02500000037252903,1000.0,100000000.0,0.30000001192092896
461,2,0.339519739151001,0.26249998807907104,-1.0079585313796997,7.401882271551585e-07,-398.3980407714844,140.26519775390625,-7.057156085968018,-295.65740966796875,0.0,0.0,0.0,0.0,2.499999936844688e-05,0.02500000037252903,1000.0,100000000.0,0.30000001192092896
462,2,0.3445197343826294,0.26249998807907104,-1.007960319519043,5.169024461793015e-07,123.9041519165039,152.61709594726562,-5.456183433532715,88.21439361572266,0.0,0.0,0.0,0.0,2.499999936844688e-05,0.02500000037252903,1000.0,100000000.0,0.30000001192092896
463,2,0.3445197343826294,0.26750001311302185,-1.0079582929611206,4.516273293120321e-07,165.15162658691406,267.0740661621094,-7.618589878082275,118.93065643310547,0.0,0.0,0.0,0.0,2.499999936844688e-05,0.02500000037252903,1000.0,100000000.0,0.30000001192092896
464,2,0.3445197343826294,0.27250000834465027,-1.0079535245895386,2.458114636283426e-07,124.30352020263672,103.49311828613281,-7.124536991119385,75.8815689086914,0.0,0.0,0.0,0.0,2.499999936844688e-05,0.02500000037252903,1000.0,100000000.0,0.30000001192092896
465,2,0.3445197343826294,0.2775000035762787,-1.0079516172409058,-1.0054244370394372e-07,43.71732711791992,-42.42359924316406,-3.974033832550049,15.869388580322266,0.0,0.0,0.0,0.0,2.499999936844688e-05,0.02500000037252903,1000.0,100000000.0,0.30000001192092896
466,2,0.3495197296142578,0.2175000011920929,-1.0079562664031982,1.123282459047914e-06,288.7110290527344,-170.14749145507812,2.7848050594329834,201.7953643798828,0.0,0.0,0.0,0.0,2.499999936844688e-05,0.02500000037252903,1000.0,100000000.0,0.30000001192092896
467,2,0.35451972484588623,0.21250000596046448,-1.0079535245895386,1.4543611541739665e-06,322.0349426269531,-89.13772583007812,-0.2909550964832306,228.1818389892578,0.0,0.0,0.0,0.0,2.499999936844688e-05,0.02500000037252903,1000.0,100000000.0,0.30000001192092896
468,2,0.35451972484588623,0.2175000011920929,-1.0079550743103027,1.1989366157649783e-06,352.8127136230469,-162.3729705810547,1.1721711158752441,251.10308837890625,0.0,0.0,0.0,0.0,2.499999936844688e-05,0.02500000037252903,1000.0,100000000.0,0.30000001192092896
469,2,0.3495197296142578,0.2224999964237213,-1.0079588890075684,8.886242994776694e-07,307.59844970703125,-40.74740219116211,2.3142199516296387,219.47975158691406,0.0,0.0,0.0,0.0,2.499999936844688e-05,0.02500000037252903,1000.0,100000000.0,0.30000001192092896
470,2,0.3495197296142578,0.22750000655651093,-1.0079588890075684,6.940882144590432e-07,274.5227966308594,55.62141418457031,2.786801338195801,194.8519744873047,0.0,0.0,0.0,0.0,2.499999936844688e-05,0.02500000037252903,1000.0,100000000.0,0.30000001192092896
471,2,0.35451972484588623,0.2224999964237213,-1.0079576969146729,9.772016937859007e-07,363.7483215332031,-45.7678337097168,1.9728506803512573,261.6543884277344,0.0,0.0,0.0,0.0,2.499999936844688e-05,0.02500000037252903,1000.0,100000000.0,0.30000001192092896
472,2,0.35451972484588623,0.22750000655651093,-1.007957935333252,7.891526934145077e-07,347.3471984863281,50.59906005859375,2.111081600189209,249.44406127929688,0.0,0.0,0.0,0.0,2.499999936844688e-05,0.02500000037252903,1000.0,100000000.0,0.30000001192092896
473,2,0.3495197296142578,0.23250000178813934,-1.0079573392868042,5.515399834621348e-07,263.8811950683594,13.127315521240234,2.8675312995910645,191.21568298339844,0.0,0.0,0.0,0.0,2.499999936844688e-05,0.02500000037252903,1000.0,100000000.0,0.30000001192092896
474,2,0.3495197296142578,0.23749999701976776,-1.0079567432403564,4.609804022948083e-07,261.2891845703125,-5.508618354797363,2.5564329624176025,189.284912109375,0.0,0.0,0.0,0.0,2.499999936844688e-05,0.02500000037252903,1000.0,100000000.0,0.30000001192092896
475,2,0.35451972484588623,0.23250000178813934,-1.0079563856124878,6.424012894967746e-07,343.6600341796875,12.49567699432373,1.9956674575805664,250.0087127685547,0.0,0.0,0.0,0.0,2.499999936844688e-05,0.02500000037252903,1000.0,100000000.0,0.30000001192092896
476,2,0.35451972484588623,0.23749999701976776,-1.0079559087753296,5.369489031181729e-07,341.4767761230469,-6.141878128051758,1.6266151666641235,248.387451171875,0.0,0.0,0.0,0.0,2.499999936844688e-05,0.02500000037252903,1000.0,100000000.0,0.30000001192092896
477,2,0.3495197296142578,0.24250000715255737,-1.0079569816589355,4.0858753891370725e-07,266.89508056640625,-51.76445770263672,1.8651419878005981,196.6324005126953,0.0,0.0,0.0,0.0,2.499999936844688e-05,0.02500000037252903,1000.0,100000000.0,0.30000001192092896
478,2,0.3495197296142578,0.2475000023841858,-1.0079580545425415,3.9436108068002795e-07,269.9349670410156,-125.01055908203125,0.7936536073684692,198.89691162109375,0.0,0.0,0.0,0.0,2.499999936844688e-05,0.02500000037252903,1000.0,100000000.0,0.30000001192092896
479,2,0.35451972484588623,0.24250000715255737,-1.0079562664031982,4.583594090945553e-07,345.5713806152344,-50.90309524536133,0.9935187101364136,253.58322143554688,0.0,0.0,0.0,0.0,2.499999936844688e-05,0.02500000037252903,1000.0,100000000.0,0.30000001192092896
480,2,0.35451972484588623,0.2475000023841858,-1.0079573392868042,4.0663258005224634e-07,348.95550537109375,-124.14448547363281,0.09638109058141708,256.1098937988281,0.0,0.0,0.0,0.0,2.499999936844688e-05,0.02500000037252903,1000.0,100000000.0,0.30000001192092896
481,2,0.3495197296142578,0.2524999976158142,-1.0079604387283325,3.861486845835316e-07,277.8243103027344,-39.91770935058594,-0.6308016180992126,205.2998504638672,0.0,0.0,0.0,0.0,2.499999936844688e-05,0.02500000037252903,1000.0,100000000.0,0.30000001192092896
482,2,0.3495197296142578,0.2574999928474426,-1.0079610347747803,3.8394915691242204e-07,288.73577880859375,-49.801456451416016,-2.4082212448120117,213.42222595214844,0.0,0.0,0.0,0.0,2.499999936844688e-05,0.02500000037252903,1000.0,100000000.0,0.30000001192092896
483,2,0.35451972484588623,0.2524999976158142,-1.0079596042633057,3.5425051692072884e-07,354.2528076171875,-37.892662048339844,-0.9038854837417603,260.0279541015625,0.0,0.0,0.0,0.0,2.499999936844688e-05,0.02500000037252903,1000.0,100000000.0,0.30000001192092896
484,2,0.35451972484588623,0.2574999928474426,-1.0079602003097534,3.0121202598820673e-07,361.5566711425781,-47.76605224609375,-2.007256031036377,265.4621887207031,0.0,0.0,0.0,0.0,2.499999936844688e-05,0.02500000037252903,1000.0,100000000.0,0.30000001192092896
485,2,0.3495197296142578,0.26249998807907104,-1.0079602003097534,3.19270753834644e-07,288.2889099121094,159.72967529296875,-3.6723272800445557,207.67355346679688,0.0,0.0,0.0,0.0,2.499999936844688e-05,0.02500000037252903,1000.0,100000000.0,0.30000001192092896
486,2,0.3495197296142578,0.26750001311302185,-1.0079578161239624,1.9211326218737668e-07,294.6462097167969,274.17584228515625,-4.4231085777282715,212.40708923339844,0.0,0.0,0.0,0.0,2.499999936844688e-05,0.02500000037252903,1000.0,100000000.0,0.30000001192092896
487,2,0.35451972484588623,0.26249998807907104,-1.007959246635437,2.0707325631974527e-07,356.03363037109375,158.593994140625,-2.5174174308776855,257.95367431640625,0.0,0.0,0.0,0.0,2.499999936844688e-05,0.02500000037252903,1000.0,100000000.0,0.30000001192092896
488,2,0.35451972484588623,0.26750001311302185,-1.007956862449646,7.183404449051523e-08,348.9352111816406,273.0278015136719,-2.4343128204345703,252.66781616210938,0.0,0.0,0.0,0.0,2.499999936844688e-05,0.02500000037252903,1000.0,100000000.0,0.30000001192092896
489,2,0.3495197296142578,0.27250000834465027,-1.00795316696167,8.105697446580962e-09,259.7820739746094,84.91739654541016,-3.717613458633423,181.70069885253906,0.0,0.0,0.0,0.0,2.499999936844688e-05,0.02500000037252903,1000.0,100000000.0,0.30000001192092896
490,2,0.3495197296142578,0.2775000035762787,-1.0079514980316162,-2.3275212868156814e-07,199.60018920898438,-61.02094268798828,-1.555886149406433,136.88565063476562,0.0,0.0,0.0,0.0,2.499999936844688e-05,0.02500000037252903,1000.0,100000000.0,0.30000001192092896
491,2,0.35451972484588623,0.27250000834465027,-1.007952094078064,-8.495833725419288e-08,316.4123229980469,71.13177490234375,-1.6173465251922607,226.81454467773438,0.0,0.0,0.0,0.0,2.499999936844688e-05,0.02500000037252903,1000.0,100000000.0,0.30000001192092896
492,2,0.35451972484588623,0.2775000035762787,-1.0079506635665894,-2.6330516789130343e-07,263.9134216308594,-74.80085754394531,-0.06657774746417999,187.71768188476562,0.0,0.0,0.0,0.0,2.499999936844688e-05,0.02500000037252903,1000.0,100000000.0,0.30000001192092896
493,2,0.3495197296142578,0.2824999988079071,-1.0079540014266968,-4.6430480438175437e-07,154.40614318847656,-32.43121337890625,0.7383317351341248,104.57266998291016,0.0,0.0,0.0,0.0,2.499999936844688e-05,0.02500000037252903,1000.0,100000000.0,0.30000001192092896
494,2,0.35451972484588623,0.2824999988079071,-1.0079532861709595,-4.248690288477519e-07,233.62652587890625,-35.92525100708008,1.770384430885315,167.36781311035156,0.0,0.0,0.0,0.0,2.499999936844688e-05,0.02500000037252903,1000.0,100000000.0,0.30000001192092896
495,2,0.35451972484588623,0.2874999940395355,-1.0079536437988281,-5.69648761938879e-07,218.32516479492188,-45.7807502746582,3.8934271335601807,155.97508239746094,0.0,0.0,0.0,0.0,2.499999936844688e-05,0.02500000037252903,1000.0,100000000.0,0.30000001192092896
496,2,0.35951974987983704,0.20749999582767487,-1.0079501867294312,1.502397253716481e-06,478.7432861328125,-36.631492614746094,-5.348526477813721,362.6775817871094,0.0,0.0,0.0,0.0,2.499999936844688e-05,0.02500000037252903,1000.0,100000000.0,0.30000001192092896
497,2,0.36451974511146545,0.20250000059604645,-1.007948637008667,1.0886659538300592e-06,-280.0756530761719,16.03559684753418,-8.22712230682373,-198.616455078125,0.0,0.0,0.0,0.0,2.499999936844688e-05,0.02500000037252903,1000.0,100000000.0,0.30000001192092896
498,2,0.36451974511146545,0.20749999582767487,-1.007948637008667,1.2784790897057974e-06,-157.02114868164062,-2.599839210510254,-6.403806686401367,-106.9841079711914,0.0,0.0,0.0,0.0,2.499999936844688e-05,0.02500000037252903,1000.0,100000000.0,0.30000001192092896
499,2,0.35951974987983704,0.21250000596046448,-1.0079511404037476,1.443592736904975e-06,582.7410888671875,-78.53434753417969,-2.8178300857543945,425.1012878417969,0.0,0.0,0.0,0.0,2.499999936844688e-05,0.02500000037252903,1000.0,100000000.0,0.30000001192092896
500,2,0.35951974987983704,0.2175000011920929,-1.0079524517059326,1.2432501534931362e-06,639.880859375,-151.77383422851562,-0.9684149026870728,467.6490783691406,0.0,0.0,0.0,0.0,2.499999936844688e-05,0.02500000037252903,1000.0,100000000.0,0.30000001192092896
501,2,0.36451974511146545,0.21250000596046448,-1.0079492330551147,1.3105583320793812e-06,-89.06788635253906,-62.45782470703125,-4.443594455718994,-71.62215423583984,0.0,0.0,0.0,0.0,2.499999936844688e-05,0.02500000037252903,1000.0,100000000.0,0.30000001192092896
502,2,0.36451974511146545,0.2175000011920929,-1.0079503059387207,1.1849040220113238e-06,-24.985374450683594,-135.70111083984375,-2.346562385559082,-23.90041732788086,0.0,0.0,0.0,0.0,2.499999936844688e-05,0.02500000037252903,1000.0,100000000.0,0.30000001192092896
503,2,0.35951974987983704,0.2224999964237213,-1.0079549551010132,1.0511389518796932e-06,672.2562866210938,-47.62139892578125,0.18194836378097534,491.8079528808594,0.0,0.0,0.0,0.0,2.499999936844688e-05,0.02500000037252903,1000.0,100000000.0,0.30000001192092896
504,2,0.35951974987983704,0.22750000655651093,-1.0079553127288818,8.672549824950693e-07,679.6587524414062,48.74734878540039,0.6331785917282104,497.3192443847656,0.0,0.0,0.0,0.0,2.499999936844688e-05,0.02500000037252903,1000.0,100000000.0,0.30000001192092896
505,2,0.36451974511146545,0.2224999964237213,-1.0079525709152222,1.0406278079244657e-06,11.25984001159668,-43.84844970703125,-0.9657106399536133,0.652463436126709,0.0,0.0,0.0,0.0,2.499999936844688e-05,0.02500000037252903,1000.0,100000000.0,0.30000001192092896
506,2,0.36451974511146545,0.22750000655651093,-1.0079530477523804,8.777256539360678e-07,27.91256332397461,52.522212982177734,-0.3010157644748688,13.053459167480469,0.0,0.0,0.0,0.0,2.499999936844688e-05,0.02500000037252903,1000.0,100000000.0,0.30000001192092896
507,2,0.35951974987983704,0.23250000178813934,-1.0079540014266968,7.144703886297066e-07,687.8992919921875,12.146719932556152,0.765138566493988,505.8199462890625,0.0,0.0,0.0,0.0,2.499999936844688e-05,0.02500000037252903,1000.0,100000000.0,0.30000001192092896
508,2,0.35951974987983704,0.23749999701976776,-1.0079536437988281,5.927868187427521e-07,689.1041870117188,-6.487671375274658,0.577833354473114,506.7119140625,0.0,0.0,0.0,0.0,2.499999936844688e-05,0.02500000037252903,1000.0,100000000.0,0.30000001192092896
509,2,0.36451974511146545,0.23250000178813934,-1.0079517364501953,7.322940973608638e-07,40.17355728149414,13.069206237792969,-0.0011777628678828478,23.305265426635742,0.0,0.0,0.0,0.0,2.499999936844688e-05,0.02500000037252903,1000.0,100000000.0,0.30000001192092896
510,2,0.36451974511146545,0.23749999701976776,-1.0079513788223267,6.043347298145818e-07,44.49923324584961,-5.5678205490112305,-0.06620189547538757,26.526769638061523,0.0,0.0,0.0,0.0,2.499999936844688e-05,0.02500000037252903,1000.0,100000000.0,0.30000001192092896
511,2,0.35951974987983704,0.24250000715255737,-1.0079540014266968,4.898229235550389e-07,693.1341552734375,-50.170135498046875,0.22865839302539825,511.0597229003906,0.0,0.0,0.0,0.0,2.499999936844688e-05,0.02500000037252903,1000.0,100000000.0,0.30000001192092896
512,2,0.35951974987983704,0.2475000023841858,-1.0079550743103027,4.055785609580198e-07,695.333251953125,-123.4134521484375,-0.2823823392391205,512.7037353515625,0.0,0.0,0.0,0.0,2.499999936844688e-05,0.02500000037252903,1000.0,100000000.0,0.30000001192092896
513,2,0.36451974511146545,0.24250000715255737,-1.0079517364501953,4.898476504422433e-07,49.32733154296875,-49.61631774902344,-0.23705537617206573,31.064430236816406,0.0,0.0,0.0,0.0,2.499999936844688e-05,0.02500000037252903,1000.0,100000000.0,0.30000001192092896
514,2,0.36451974511146545,0.2475000023841858,-1.0079528093338013,3.8883274555701064e-07,51.5760383605957,-122.86100769042969,-0.5137361288070679,32.738895416259766,0.0,0.0,0.0,0.0,2.499999936844688e-05,0.02500000037252903,1000.0,100000000.0,0.30000001192092896
515,2,0.35951974987983704,0.2524999976158142,-1.0079573392868042,3.1886631290944933e-07,697.782958984375,-36.373741149902344,-0.7743576765060425,514.2805786132812,0.0,0.0,0.0,0.0,2.499999936844688e-05,0.02500000037252903,1000.0,100000000.0,0.30000001192092896
516,2,0.35951974987983704,0.2574999928474426,-1.0079576969146729,2.296851988603521e-07,701.1737670898438,-46.25615692138672,-1.2472569942474365,516.8096923828125,0.0,0.0,0.0,0.0,2.499999936844688e-05,0.02500000037252903,1000.0,100000000.0,0.30000001192092896
517,2,0.36451974511146545,0.2524999976158142,-1.0079550743103027,2.8788392114620365e-07,53.33713150024414,-35.90581512451172,-0.7001011371612549,34.06974411010742,0.0,0.0,0.0,0.0,2.499999936844688e-05,0.02500000037252903,1000.0,100000000.0,0.30000001192092896
518,2,0.36451974511146545,0.2574999928474426,-1.0079554319381714,1.8700023929341114e-07,54.69620132446289,-45.779293060302734,-0.7961186766624451,35.081233978271484,0.0,0.0,0.0,0.0,2.499999936844688e-05,0.02500000037252903,1000.0,100000000.0,0.30000001192092896
519,2,0.35951974987983704,0.26249998807907104,-1.007956862449646,1.2040170815907913e-07,697.1753540039062,156.97422790527344,-1.2990034818649292,512.3074951171875,0.0,0.0,0.0,0.0,2.499999936844688e-05,0.02500000037252903,1000.0,100000000.0,0.30000001192092896
520,2,0.35951974987983704,0.26750001311302185,-1.0079543590545654,-8.984066823813919e-09,690.91845703125,271.41375732421875,-0.9296003580093384,507.6493225097656,0.0,0.0,0.0,0.0,2.499999936844688e-05,0.02500000037252903,1000.0,100000000.0,0.30000001192092896
521,2,0.36451974511146545,0.26249998807907104,-1.007954478263855,7.94841596984952e-08,51.1711540222168,155.12538146972656,-0.5785932540893555,32.1078987121582,0.0,0.0,0.0,0.0,2.499999936844688e-05,0.02500000037252903,1000.0,100000000.0,0.30000001192092896
522,2,0.36451974511146545,0.26750001311302185,-1.007952094078064,-3.46641435555739e-08,43.6792106628418,269.57110595703125,-0.04753773286938667,26.52941131591797,0.0,0.0,0.0,0.0,2.499999936844688e-05,0.02500000037252903,1000.0,100000000.0,0.30000001192092896
523,2,0.35951974987983704,0.27250000834465027,-1.007949709892273,-1.374466620518433e-07,674.2362670898438,60.01742172241211,-0.1455908566713333,495.7726745605469,0.0,0.0,0.0,0.0,2.499999936844688e-05,0.02500000037252903,1000.0,100000000.0,0.30000001192092896
524,2,0.35951974987983704,0.2775000035762787,-1.007948398590088,-2.6498781835471164e-07,645.2931518554688,-85.91920471191406,1.0530083179473877,474.23004150390625,0.0,0.0,0.0,0.0,2.499999936844688e-05,0.02500000037252903,1000.0,100000000.0,0.30000001192092896
525,2,0.36451974511146545,0.27250000834465027,-1.0079474449157715,-1.364511064139151e-07,32.46139144897461,54.50273513793945,0.7152723073959351,19.671655654907227,0.0,0.0,0.0,0.0,2.499999936844688e-05,0.02500000037252903,1000.0,100000000.0,0.30000001192092896
526,2,0.36451974511146545,0.2775000035762787,-1.0079461336135864,-2.2587856562950037e-07,12.600298881530762,-91.43130493164062,1.7097222805023193,4.881493091583252,0.0,0.0,0.0,0.0,2.499999936844688e-05,0.02500000037252903,1000.0,100000000.0,0.30000001192092896
527,2,0.35951974987983704,0.2824999988079071,-1.0079511404037476,-3.64405053687733e-07,622.296142578125,-41.23936080932617,2.4991114139556885,460.2660217285156,0.0,0.0,0.0,0.0,2.499999936844688e-05,0.02500000037252903,1000.0,100000000.0,0.30000001192092896
528,2,0.35951974987983704,0.2874999940395355,-1.0079516172409058,-4.3569698959800007e-07,594.5771484375,-51.12249755859375,4.192699909210205,439.6227111816406,0.0,0.0,0.0,0.0,2.499999936844688e-05,0.02500000037252903,1000.0,100000000.0,0.30000001192092896
529,2,0.36451974511146545,0.2824999988079071,-1.007948875427246,-2.7841417704621563e-07,-5.509954452514648,-48.70732116699219,2.920030117034912,-4.661693096160889,0.0,0.0,0.0,0.0,2.499999936844688e-05,0.02500000037252903,1000.0,100000000.0,0.30000001192092896
530,2,0.36451974511146545,0.2874999940395355,-1.0079493522644043,-2.940570027476497e-07,-34.84137725830078,-58.57986831665039,4.345532417297363,-26.504409790039062,0.0,0.0,0.0,0.0,2.499999936844688e-05,0.02500000037252903,1000.0,100000000.0,0.30000001192092896
531,2,0.35951974987983704,0.29249998927116394,-1.007951259613037,-4.2805214661711943e-07,571.75244140625,74.43645477294922,5.676161289215088,431.3536071777344,0.0,0.0,0.0,0.0,2.499999936844688e-05,0.02500000037252903,1000.0,100000000.0,0.30000001192092896
532,2,0.36451974511146545,0.29249998927116394,-1.0079489946365356,-2.411195794138621e-07,-16.250795364379883,82.51262664794922,5.045111179351807,-5.981732368469238,0.0,0.0,0.0,0.0,2.499999936844688e-05,0.02500000037252903,1000.0,100000000.0,0.30000001192092896
533,2,0.36451974511146545,0.29750001430511475,-1.007947564125061,-1.1960150914092083e-07,28.03864860534668,196.98426818847656,5.018290042877197,26.9993896484375,0.0,0.0,0.0,0.0,2.499999936844688e-05,0.02500000037252903,1000.0,100000000.0,0.30000001192092896
534,2,0.36951974034309387,0.19750000536441803,-1.0079529285430908,3.722357746482885e-07,-786.2764892578125,145.4953155517578,1.7949299812316895,-557.52294921875,0.0,0.0,0.0,0.0,2.499999936844688e-05,0.02500000037252903,1000.0,100000000.0,0.30000001192092896
535,2,0.3745197355747223,0.19750000536441803,-1.0079563856124878,6.095120284044242e-07,-273.3924255371094,131.8251190185547,8.402608871459961,-190.6898651123047,0.0,0.0,0.0,0.0,2.499999936844688e-05,0.02500000037252903,1000.0,100000000.0,0.30000001192092896
536,2,0.36951974034309387,0.20250000059604645,-1.0079506635665894,8.149688710545888e-07,-845.2811889648438,38.3914909362793,-1.9208319187164307,-617.9752197265625,0.0,0.0,0.0,0.0,2.499999936844688e-05,0.02500000037252903,1000.0,100000000.0,0.30000001192092896
537,2,0.36951974034309387,0.20749999582767487,-1.0079500675201416,1.0599665074551012e-06,-811.4154663085938,19.757564544677734,-3.0477473735809326,-592.7576904296875,0.0,0.0,0.0,0.0,2.499999936844688e-05,0.02500000037252903,1000.0,100000000.0,0.30000001192092896
538,2,0.3745197355747223,0.20250000059604645,-1.0079540014266968,8.526255896867951e-07,-299.3501892089844,41.134544372558594,2.2591662406921387,-216.01638793945312,0.0,0.0,0.0,0.0,2.499999936844688e-05,0.02500000037252903,1000.0,100000000.0,0.30000001192092896
539,2,0.3745197355747223,0.20749999582767487,-1.00795316696167,1.0125684184458805e-06,-293.4743957519531,22.495344161987305,-0.802029550075531,-211.64208984375,0.0,0.0,0.0,0.0,2.499999936844688e-05,0.02500000037252903,1000.0,100000000.0,0.30000001192092896
540,2,0.36951974034309387,0.21250000596046448,-1.0079503059387207,1.1558294090718846e-06,-798.3907470703125,-48.75245666503906,-3.20735502243042,-596.89697265625,0.0,0.0,0.0,0.0,2.499999936844688e-05,0.02500000037252903,1000.0,100000000.0,0.30000001192092896
541,2,0.36951974034309387,0.2175000011920929,-1.007951259613037,1.1025581443391275e-06,-760.0918579101562,-121.99381256103516,-2.399686574935913,-568.3818359375,0.0,0.0,0.0,0.0,2.499999936844688e-05,0.02500000037252903,1000.0,100000000.0,0.30000001192092896
542,2,0.3745197355747223,0.21250000596046448,-1.0079532861709595,1.0702890449465485e-06,-290.3306579589844,-40.560791015625,-2.3518900871276855,-218.28990173339844,0.0,0.0,0.0,0.0,2.499999936844688e-05,0.02500000037252903,1000.0,100000000.0,0.30000001192092896
543,2,0.3745197355747223,0.2175000011920929,-1.0079541206359863,1.0257874691887992e-06,-259.57403564453125,-113.80780792236328,-2.3896679878234863,-195.3883819580078,0.0,0.0,0.0,0.0,2.499999936844688e-05,0.02500000037252903,1000.0,100000000.0,0.30000001192092896
544,2,0.36951974034309387,0.2224999964237213,-1.0079535245895386,1.006490720101283e-06,-739.7540893554688,-39.65625762939453,-1.734777808189392,-557.5271606445312,0.0,0.0,0.0,0.0,2.499999936844688e-05,0.02500000037252903,1000.0,100000000.0,0.30000001192092896
545,2,0.36951974034309387,0.22750000655651093,-1.0079540014266968,8.676234983795439e-07,-723.0922241210938,56.71072006225586,-1.2135157585144043,-545.1179809570312,0.0,0.0,0.0,0.0,2.499999936844688e-05,0.02500000037252903,1000.0,100000000.0,0.30000001192092896
546,2,0.3745197355747223,0.2224999964237213,-1.0079562664031982,9.416776265425142e-07,-241.821044921875,-35.23828887939453,-2.1994640827178955,-185.95448303222656,0.0,0.0,0.0,0.0,2.499999936844688e-05,0.02500000037252903,1000.0,100000000.0,0.30000001192092896
547,2,0.3745197355747223,0.22750000655651093,-1.007956624031067,8.179559927157243e-07,-224.27639770507812,61.12757873535156,-1.781040906906128,-172.8917236328125,0.0,0.0,0.0,0.0,2.499999936844688e-05,0.02500000037252903,1000.0,100000000.0,0.30000001192092896
548,2,0.36951974034309387,0.23250000178813934,-1.0079525709152222,7.326339073188137e-07,-711.6053466796875,14.315887451171875,-0.9028307199478149,-536.5502319335938,0.0,0.0,0.0,0.0,2.499999936844688e-05,0.02500000037252903,1000.0,100000000.0,0.30000001192092896
549,2,0.36951974034309387,0.23749999701976776,-1.0079522132873535,6.015238227519148e-07,-705.4217529296875,-4.320943832397461,-0.8031455278396606,-531.9444580078125,0.0,0.0,0.0,0.0,2.499999936844688e-05,0.02500000037252903,1000.0,100000000.0,0.30000001192092896
550,2,0.3745197355747223,0.23250000178813934,-1.0079551935195923,6.923144155734917e-07,-212.413818359375,16.188343048095703,-1.4720392227172852,-164.50350952148438,0.0,0.0,0.0,0.0,2.499999936844688e-05,0.02500000037252903,1000.0,100000000.0,0.30000001192092896
551,2,0.3745197355747223,0.23749999701976776,-1.0079548358917236,5.647546004183823e-07,-204.73597717285156,-2.4469902515411377,-1.2724300622940063,-158.7808074951172,0.0,0.0,0.0,0.0,2.499999936844688e-05,0.02500000037252903,1000.0,100000000.0,0.30000001192092896
552,2,0.36951974034309387,0.24250000715255737,-1.0079526901245117,4.795001586899161e-07,-699.5613403320312,-48.9727897644043,-0.7804763913154602,-526.97265625,0.0,0.0,0.0,0.0,2.499999936844688e-05,0.02500000037252903,1000.0,100000000.0,0.30000001192092896
553,2,0.36951974034309387,0.2475000023841858,-1.0079536437988281,3.6656305724136473e-07,-696.2232666015625,-122.21578979492188,-0.8348759412765503,-524.4918823242188,0.0,0.0,0.0,0.0,2.499999936844688e-05,0.02500000037252903,1000.0,100000000.0,0.30000001192092896
554,2,0.3745197355747223,0.24250000715255737,-1.0079551935195923,4.4341442162476596e-07,-198.08058166503906,-47.92125701904297,-1.1302809715270996,-153.43650817871094,0.0,0.0,0.0,0.0,2.499999936844688e-05,0.02500000037252903,1000.0,100000000.0,0.30000001192092896
555,2,0.3745197355747223,0.2475000023841858,-1.0079562664031982,3.282937370840955e-07,-193.72666931152344,-121.16394805908203,-1.0455479621887207,-150.1951904296875,0.0,0.0,0.0,0.0,2.499999936844688e-05,0.02500000037252903,1000.0,100000000.0,0.30000001192092896
556,2,0.36951974034309387,0.2524999976158142,-1.0079559087753296,2.5707220174808754e-07,-693.9395751953125,-35.630958557128906,-0.8293097019195557,-522.4934692382812,0.0,0.0,0.0,0.0,2.499999936844688e-05,0.02500000037252903,1000.0,100000000.0,0.30000001192092896
557,2,0.36951974034309387,0.2574999928474426,-1.0079562664031982,1.510267111370922e-07,-693.7821044921875,-45.51535415649414,-0.7638271450996399,-522.37109375,0.0,0.0,0.0,0.0,2.499999936844688e-05,0.02500000037252903,1000.0,100000000.0,0.30000001192092896
558,2,0.3745197355747223,0.2524999976158142,-1.0079585313796997,2.1821955442646868e-07,-191.2381591796875,-35.78061294555664,-0.9221125245094299,-147.8900146484375,0.0,0.0,0.0,0.0,2.499999936844688e-05,0.02500000037252903,1000.0,100000000.0,0.30000001192092896
559,2,0.3745197355747223,0.2574999928474426,-1.0079588890075684,1.1319107784402149e-07,-192.0872039794922,-45.65452575683594,-0.7599701285362244,-148.52084350585938,0.0,0.0,0.0,0.0,2.499999936844688e-05,0.02500000037252903,1000.0,100000000.0,0.30000001192092896
560,2,0.36951974034309387,0.26249998807907104,-1.0079553127288818,4.925816199374822e-08,-694.83056640625,153.59742736816406,-0.5325916409492493,-522.5751342773438,0.0,0.0,0.0,0.0,2.499999936844688e-05,0.02500000037252903,1000.0,100000000.0,0.30000001192092896
561,2,0.36951974034309387,0.26750001311302185,-1.0079529285430908,-4.823324672997842e-08,-698.976806640625,268.0384826660156,-0.13559606671333313,-525.66357421875,0.0,0.0,0.0,0.0,2.499999936844688e-05,0.02500000037252903,1000.0,100000000.0,0.30000001192092896
562,2,0.3745197355747223,0.26249998807907104,-1.007957935333252,1.648931124975661e-08,-192.82412719726562,152.60997009277344,-0.5272015929222107,-148.1724395751953,0.0,0.0,0.0,0.0,2.499999936844688e-05,0.02500000037252903,1000.0,100000000.0,0.30000001192092896
563,2,0.3745197355747223,0.26750001311302185,-1.007955551147461,-7.188556594428519e-08,-196.69676208496094,267.0453796386719,-0.22380100190639496,-151.0522918701172,0.0,0.0,0.0,0.0,2.499999936844688e-05,0.02500000037252903,1000.0,100000000.0,0.30000001192092896
564,2,0.36951974034309387,0.27250000834465027,-1.007948398590088,-1.254486790003284e-07,-700.5106201171875,50.86975860595703,0.324687123298645,-524.677978515625,0.0,0.0,0.0,0.0,2.499999936844688e-05,0.02500000037252903,1000.0,100000000.0,0.30000001192092896
565,2,0.36951974034309387,0.2775000035762787,-1.0079470872879028,-1.823898543307223e-07,-706.513916015625,-95.07054901123047,0.8481640815734863,-529.1572875976562,0.0,0.0,0.0,0.0,2.499999936844688e-05,0.02500000037252903,1000.0,100000000.0,0.30000001192092896
566,2,0.3745197355747223,0.27250000834465027,-1.0079509019851685,-1.4002917225752753e-07,-196.11965942382812,50.18846130371094,0.03431432321667671,-148.5835418701172,0.0,0.0,0.0,0.0,2.499999936844688e-05,0.02500000037252903,1000.0,100000000.0,0.30000001192092896
567,2,0.3745197355747223,0.2775000035762787,-1.007949709892273,-1.8794325740145723e-07,-197.94374084472656,-95.74444580078125,0.24714291095733643,-149.9417724609375,0.0,0.0,0.0,0.0,2.499999936844688e-05,0.02500000037252903,1000.0,100000000.0,0.30000001192092896
568,2,0.36951974034309387,0.2824999988079071,-1.0079498291015625,-1.9638736148408498e-07,-697.8125610351562,-52.30503845214844,1.1754745244979858,-518.4366455078125,0.0,0.0,0.0,0.0,2.499999936844688e-05,0.02500000037252903,1000.0,100000000.0,0.30000001192092896
569,2,0.36951974034309387,0.2874999940395355,-1.0079503059387207,-1.6744046149597125e-07,-688.5818481445312,-62.187049865722656,1.306265950202942,-511.5657043457031,0.0,0.0,0.0,0.0,2.499999936844688e-05,0.02500000037252903,1000.0,100000000.0,0.30000001192092896
570,2,0.3745197355747223,0.2824999988079071,-1.0079522132873535,-2.0591980387507647e-07,-183.2620391845703,-47.28236389160156,-0.000654659466817975,-136.17642211914062,0.0,0.0,0.0,0.0,2.499999936844688e-05,0.02500000037252903,1000.0,100000000.0,0.30000001192092896
571,2,0.3745197355747223,0.2874999940395355,-1.0079526901245117,-1.9395798744881176e-07,-161.2827606201172,-57.156917572021484,-0.7090590596199036,-119.8079605102539,0.0,0.0,0.0,0.0,2.499999936844688e-05,0.02500000037252903,1000.0,100000000.0,0.30000001192092896
572,2,0.36951974034309387,0.29249998927116394,-1.007949709892273,-9.899399344703852e-08,-635.21923828125,98.18407440185547,0.3211461007595062,-468.1230773925781,0.0,0.0,0.0,0.0,2.499999936844688e-05,0.02500000037252903,1000.0,100000000.0,0.30000001192092896
573,2,0.36951974034309387,0.29750001430511475,-1.0079479217529297,8.952175001297746e-09,-550.0797119140625,212.62789916992188,-1.779903769493103,-404.7210693359375,0.0,0.0,0.0,0.0,2.499999936844688e-05,0.02500000037252903,1000.0,100000000.0,0.30000001192092896
574,2,0.3745197355747223,0.29249998927116394,-1.0079519748687744,-1.8689918590553134e-07,-104.46802520751953,121.9409408569336,-2.778135061264038,-78.35733795166016,0.0,0.0,0.0,0.0,2.499999936844688e-05,0.02500000037252903,1000.0,100000000.0,0.30000001192092896
575,2,0.3745197355747223,0.29750001430511475,-1.0079500675201416,-1.8474344187779934e-07,-9.962638854980469,236.39028930664062,-6.207871437072754,-7.980325222015381,0.0,0.0,0.0,0.0,2.499999936844688e-05,0.02500000037252903,1000.0,100000000.0,0.30000001192092896
576,2,0.36951974034309387,0.30250000953674316,-1.0079433917999268,2.0156717539521196e-07,-466.9427185058594,71.98607635498047,-7.457301616668701,-336.7710266113281,0.0,0.0,0.0,0.0,2.499999936844688e-05,0.02500000037252903,1000.0,100000000.0,0.30000001192092896
577,2,0.3745197355747223,0.30250000953674316,-1.0079450607299805,-2.0889008567337441e-07,76.1752700805664,94.95005798339844,-12.399137496948242,51.97443389892578,0.0,0.0,0.0,0.0,2.499999936844688e-05,0.02500000037252903,1000.0,100000000.0,0.30000001192092896
578,2,0.3795197308063507,0.19750000536441803,-1.0079578161239624,9.444682973480667e-07,-82.29253387451172,125.421142578125,7.22282600402832,-62.52640914916992,0.0,0.0,0.0,0.0,2.499999936844688e-05,0.02500000037252903,1000.0,100000000.0,0.30000001192092896
579,2,0.3845197260379791,0.19249999523162842,-1.0079596042633057,1.3421559970083763e-06,2.8021979331970215,27.349302291870117,9.62778091430664,-5.968015193939209,0.0,0.0,0.0,0.0,2.499999936844688e-05,0.02500000037252903,1000.0,100000000.0,0.30000001192092896
580,2,0.3845197260379791,0.19750000536441803,-1.0079584121704102,1.1851581120936316e-06,-3.788745403289795,123.71916961669922,6.242227554321289,-10.876301765441895,0.0,0.0,0.0,0.0,2.499999936844688e-05,0.02500000037252903,1000.0,100000000.0,0.30000001192092896
581,2,0.3795197308063507,0.20250000059604645,-1.007955551147461,9.652570724938414e-07,-73.26307678222656,43.956146240234375,2.9691107273101807,-52.87074661254883,0.0,0.0,0.0,0.0,2.499999936844688e-05,0.02500000037252903,1000.0,100000000.0,0.30000001192092896
582,2,0.3795197308063507,0.20749999582767487,-1.007954478263855,1.0088277804243262e-06,-55.433956146240234,25.320363998413086,0.16653457283973694,-39.59356689453125,0.0,0.0,0.0,0.0,2.499999936844688e-05,0.02500000037252903,1000.0,100000000.0,0.30000001192092896
583,2,0.3845197260379791,0.20250000059604645,-1.0079559087753296,1.0807518719957443e-06,11.256267547607422,48.95454406738281,3.25693678855896,5.468648910522461,0.0,0.0,0.0,0.0,2.499999936844688e-05,0.02500000037252903,1000.0,100000000.0,0.30000001192092896
584,2,0.3845197260379791,0.20749999582767487,-1.0079548358917236,1.0289397778251441e-06,30.87446403503418,30.313186645507812,0.6717773079872131,20.077957153320312,0.0,0.0,0.0,0.0,2.499999936844688e-05,0.02500000037252903,1000.0,100000000.0,0.30000001192092896
585,2,0.3795197308063507,0.21250000596046448,-1.007954478263855,1.0041195537269232e-06,-43.9582405090332,-33.858280181884766,-1.517179012298584,-35.19720458984375,0.0,0.0,0.0,0.0,2.499999936844688e-05,0.02500000037252903,1000.0,100000000.0,0.30000001192092896
586,2,0.3795197308063507,0.2175000011920929,-1.0079550743103027,9.511330176792399e-07,-25.211488723754883,-107.1016845703125,-2.0820300579071045,-21.23710823059082,0.0,0.0,0.0,0.0,2.499999936844688e-05,0.02500000037252903,1000.0,100000000.0,0.30000001192092896
587,2,0.3845197260379791,0.21250000596046448,-1.007954716682434,9.632150295146857e-07,46.15764236450195,-30.05687141418457,-1.055670976638794,30.50579071044922,0.0,0.0,0.0,0.0,2.499999936844688e-05,0.02500000037252903,1000.0,100000000.0,0.30000001192092896
588,2,0.3845197260379791,0.2175000011920929,-1.0079553127288818,8.83577286003856e-07,60.13375473022461,-103.29956817626953,-1.9254080057144165,40.914302825927734,0.0,0.0,0.0,0.0,2.499999936844688e-05,0.02500000037252903,1000.0,100000000.0,0.30000001192092896
589,2,0.3795197308063507,0.2224999964237213,-1.0079572200775146,8.687087529324344e-07,-14.4528226852417,-31.304624557495117,-2.2855989933013916,-16.060394287109375,0.0,0.0,0.0,0.0,2.499999936844688e-05,0.02500000037252903,1000.0,100000000.0,0.30000001192092896
590,2,0.3795197308063507,0.22750000655651093,-1.0079573392868042,7.568438036287262e-07,-2.2564191818237305,65.06462860107422,-2.1279642581939697,-6.977870941162109,0.0,0.0,0.0,0.0,2.499999936844688e-05,0.02500000037252903,1000.0,100000000.0,0.30000001192092896
591,2,0.3845197260379791,0.2224999964237213,-1.0079572200775146,7.885001878094045e-07,70.06315612792969,-28.554229736328125,-2.359933853149414,46.93781661987305,0.0,0.0,0.0,0.0,2.499999936844688e-05,0.02500000037252903,1000.0,100000000.0,0.30000001192092896
592,2,0.3845197260379791,0.22750000655651093,-1.0079574584960938,6.779807222301315e-07,80.56622314453125,67.8127670288086,-2.3592355251312256,54.75852584838867,0.0,0.0,0.0,0.0,2.499999936844688e-05,0.02500000037252903,1000.0,100000000.0,0.30000001192092896
593,2,0.3795197308063507,0.23250000178813934,-1.0079559087753296,6.397282845682639e-07,5.9282145500183105,18.0191707611084,-1.9470107555389404,-1.555227518081665,0.0,0.0,0.0,0.0,2.499999936844688e-05,0.02500000037252903,1000.0,100000000.0,0.30000001192092896
594,2,0.3795197308063507,0.23749999701976776,-1.007955551147461,5.173636736799381e-07,12.353597640991211,-0.6167821288108826,-1.742754340171814,3.2301645278930664,0.0,0.0,0.0,0.0,2.499999936844688e-05,0.02500000037252903,1000.0,100000000.0,0.30000001192092896
595,2,0.3845197260379791,0.23250000178813934,-1.0079559087753296,5.643066174343403e-07,88.35714721679688,19.623979568481445,-2.2546565532684326,60.19020080566406,0.0,0.0,0.0,0.0,2.499999936844688e-05,0.02500000037252903,1000.0,100000000.0,0.30000001192092896
596,2,0.3845197260379791,0.23749999701976776,-1.007955551147461,4.4747940819434007e-07,94.68094635009766,0.9845742583274841,-2.0462303161621094,64.89940643310547,0.0,0.0,0.0,0.0,2.499999936844688e-05,0.02500000037252903,1000.0,100000000.0,0.30000001192092896
597,2,0.3795197308063507,0.24250000715255737,-1.0079560279846191,3.989134427229146e-07,17.50641441345215,-46.94816207885742,-1.5565948486328125,7.299663066864014,0.0,0.0,0.0,0.0,2.499999936844688e-05,0.02500000037252903,1000.0,100000000.0,0.30000001192092896
598,2,0.3795197308063507,0.2475000023841858,-1.0079569816589355,2.843775348537747e-07,20.37514877319336,-120.19269561767578,-1.3885186910629272,9.436016082763672,0.0,0.0,0.0,0.0,2.499999936844688e-05,0.02500000037252903,1000.0,100000000.0,0.30000001192092896
599,2,0.3845197260379791,0.24250000715255737,-1.0079560279846191,3.3405498811589496e-07,99.38306427001953,-46.3192253112793,-1.8311491012573242,68.63844299316406,0.0,0.0,0.0,0.0,2.499999936844688e-05,0.02500000037252903,1000.0,100000000.0,0.30000001192092896
600,2,0.3845197260379791,0.2475000023841858,-1.007957100868225,2.2403331456644082e-07,101.77790832519531,-119.56120300292969,-1.6094672679901123,70.421630859375,0.0,0.0,0.0,0.0,2.499999936844688e-05,0.02500000037252903,1000.0,100000000.0,0.30000001192092896
601,2,0.3795197308063507,0.2524999976158142,-1.0079593658447266,1.758510990157447e-07,22.856700897216797,-35.87483596801758,-1.2240779399871826,11.825116157531738,0.0,0.0,0.0,0.0,2.499999936844688e-05,0.02500000037252903,1000.0,100000000.0,0.30000001192092896
602,2,0.3795197308063507,0.2574999928474426,-1.0079597234725952,7.333351703664448e-08,23.036876678466797,-45.75522994995117,-1.0632989406585693,11.959339141845703,0.0,0.0,0.0,0.0,2.499999936844688e-05,0.02500000037252903,1000.0,100000000.0,0.30000001192092896
603,2,0.3845197260379791,0.2524999976158142,-1.0079593658447266,1.190737393130803e-07,103.92298889160156,-35.78661346435547,-1.4180817604064941,72.47398376464844,0.0,0.0,0.0,0.0,2.499999936844688e-05,0.02500000037252903,1000.0,100000000.0,0.30000001192092896
604,2,0.3845197260379791,0.2574999928474426,-1.0079597234725952,1.9175836030171922e-08,104.28414916992188,-45.65795135498047,-1.256988286972046,72.7432632446289,0.0,0.0,0.0,0.0,2.499999936844688e-05,0.02500000037252903,1000.0,100000000.0,0.30000001192092896
605,2,0.3795197308063507,0.26249998807907104,-1.0079586505889893,-1.89451174748001e-08,24.41530990600586,151.9478759765625,-0.9334705471992493,14.017631530761719,0.0,0.0,0.0,0.0,2.499999936844688e-05,0.02500000037252903,1000.0,100000000.0,0.30000001192092896
606,2,0.3795197308063507,0.26750001311302185,-1.0079562664031982,-1.0098456471041573e-07,23.608125686645508,266.3893127441406,-0.8346102237701416,13.416553497314453,0.0,0.0,0.0,0.0,2.499999936844688e-05,0.02500000037252903,1000.0,100000000.0,0.30000001192092896
607,2,0.3845197260379791,0.26249998807907104,-1.0079587697982788,-7.304316085310347e-08,105.77689361572266,151.8992919921875,-1.1903656721115112,74.6053695678711,0.0,0.0,0.0,0.0,2.499999936844688e-05,0.02500000037252903,1000.0,100000000.0,0.30000001192092896
608,2,0.3845197260379791,0.26750001311302185,-1.0079563856124878,-1.5758307370106195e-07,105.75675964355469,266.33551025390625,-1.2182177305221558,74.5901107788086,0.0,0.0,0.0,0.0,2.499999936844688e-05,0.02500000037252903,1000.0,100000000.0,0.30000001192092896
609,2,0.3795197308063507,0.27250000834465027,-1.0079516172409058,-1.6516652578957292e-07,27.995647430419922,50.2700309753418,-0.8785827159881592,18.456018447875977,0.0,0.0,0.0,0.0,2.499999936844688e-05,0.02500000037252903,1000.0,100000000.0,0.30000001192092896
610,2,0.3795197308063507,0.2775000035762787,-1.0079504251480103,-2.1149278950360895e-07,31.6506290435791,-95.66818237304688,-1.0653936862945557,21.177982330322266,0.0,0.0,0.0,0.0,2.499999936844688e-05,0.02500000037252903,1000.0,100000000.0,0.30000001192092896
611,2,0.3845197260379791,0.27250000834465027,-1.0079517364501953,-2.304561377286518e-07,110.30757904052734,51.58058547973633,-1.4481048583984375,79.09109497070312,0.0,0.0,0.0,0.0,2.499999936844688e-05,0.02500000037252903,1000.0,100000000.0,0.30000001192092896
612,2,0.3845197260379791,0.2775000035762787,-1.0079504251480103,-2.916644916695077e-07,115.81209564208984,-94.35237884521484,-1.8800407648086548,83.1908950805664,0.0,0.0,0.0,0.0,2.499999936844688e-05,0.02500000037252903,1000.0,100000000.0,0.30000001192092896
613,2,0.3795197308063507,0.2824999988079071,-1.00795316696167,-2.449348812660901e-07,47.9767951965332,-41.3922004699707,-1.6498781442642212,34.62261199951172,0.0,0.0,0.0,0.0,2.499999936844688e-05,0.02500000037252903,1000.0,100000000.0,0.30000001192092896
614,2,0.3795197308063507,0.2874999940395355,-1.007953405380249,-2.654916499977844e-07,72.65817260742188,-51.27735900878906,-2.6320321559906006,53.003108978271484,0.0,0.0,0.0,0.0,2.499999936844688e-05,0.02500000037252903,1000.0,100000000.0,0.30000001192092896
615,2,0.3845197260379791,0.2824999988079071,-1.0079530477523804,-3.52294108552087e-07,131.32440185546875,-34.90115737915039,-2.6601710319519043,94.77326965332031,0.0,0.0,0.0,0.0,2.499999936844688e-05,0.02500000037252903,1000.0,100000000.0,0.30000001192092896
616,2,0.3845197260379791,0.2874999940395355,-1.0079532861709595,-4.12343325706388e-07,157.1185302734375,-44.775569915771484,-3.78849196434021,113.98274993896484,0.0,0.0,0.0,0.0,2.499999936844688e-05,0.02500000037252903,1000.0,100000000.0,0.30000001192092896
617,2,0.3795197308063507,0.29249998927116394,-1.0079524517059326,-3.3541698485350935e-07,114.202880859375,144.05824279785156,-4.2689528465271,79.12564086914062,0.0,0.0,0.0,0.0,2.499999936844688e-05,0.02500000037252903,1000.0,100000000.0,0.30000001192092896
618,2,0.3795197308063507,0.29750001430511475,-1.0079500675201416,-4.547110563635215e-07,188.74591064453125,258.5087585449219,-6.560734748840332,134.63711547851562,0.0,0.0,0.0,0.0,2.499999936844688e-05,0.02500000037252903,1000.0,100000000.0,0.30000001192092896
619,2,0.3845197260379791,0.29249998927116394,-1.007952094078064,-5.33438026195654e-07,193.9233856201172,161.68421936035156,-5.117034912109375,135.52728271484375,0.0,0.0,0.0,0.0,2.499999936844688e-05,0.02500000037252903,1000.0,100000000.0,0.30000001192092896
620,2,0.3845197260379791,0.29750001430511475,-1.0079494714736938,-7.155783237067226e-07,261.6251220703125,276.1405029296875,-6.645781517028809,185.94085693359375,0.0,0.0,0.0,0.0,2.499999936844688e-05,0.02500000037252903,1000.0,100000000.0,0.30000001192092896
621,2,0.3795197308063507,0.30250000953674316,-1.0079450607299805,-6.895416504448804e-07,224.05467224121094,113.0724105834961,-9.766749382019043,149.18258666992188,0.0,0.0,0.0,0.0,2.499999936844688e-05,0.02500000037252903,1000.0,100000000.0,0.30000001192092896
622,2,0.3845197260379791,0.30250000953674316,-1.0079442262649536,-1.0194994501944166e-06,281.3888854980469,117.0695571899414,-7.915292739868164,188.90914916992188,0.0,0.0,0.0,0.0,2.499999936844688e-05,0.02500000037252903,1000.0,100000000.0,0.30000001192092896
623,2,0.3845197260379791,0.3075000047683716,-1.007941722869873,-1.4452072036874597e-06,292.180419921875,25.743873596191406,-8.925602912902832,196.950439453125,0.0,0.0,0.0,0.0,2.499999936844688e-05,0.02500000037252903,1000.0,100000000.0,0.30000001192092896
624,2,0.38951975107192993,0.19249999523162842,-1.0079594850540161,1.65350695624511e-06,277.8924255371094,26.20261001586914,5.318483352661133,193.44256591796875,0.0,0.0,0.0,0.0,2.499999936844688e-05,0.02500000037252903,1000.0,100000000.0,0.30000001192092896
625,2,0.38951975107192993,0.19750000536441803,-1.0079584121704102,1.3859310001862468e-06,277.2680358886719,122.57408142089844,2.7079153060913086,192.9736785888672,0.0,0.0,0.0,0.0,2.499999936844688e-05,0.02500000037252903,1000.0,100000000.0,0.30000001192092896
626,2,0.39451974630355835,0.19249999523162842,-1.0079582929611206,1.7815260662246146e-06,381.7770080566406,26.629226684570312,2.6794281005859375,266.832763671875,0.0,0.0,0.0,0.0,2.499999936844688e-05,0.02500000037252903,1000.0,100000000.0,0.30000001192092896
627,2,0.39451974630355835,0.19750000536441803,-1.0079572200775146,1.4295206938186311e-06,383.9292907714844,122.99807739257812,0.49350064992904663,268.4317932128906,0.0,0.0,0.0,0.0,2.499999936844688e-05,0.02500000037252903,1000.0,100000000.0,0.30000001192092896
628,2,0.38951975107192993,0.20250000059604645,-1.0079559087753296,1.1837361171274097e-06,292.69000244140625,53.01771926879883,0.6636463403701782,211.16259765625,0.0,0.0,0.0,0.0,2.499999936844688e-05,0.02500000037252903,1000.0,100000000.0,0.30000001192092896
629,2,0.38951975107192993,0.20749999582767487,-1.0079545974731445,1.0469250355527038e-06,301.6839904785156,34.38172149658203,-0.8142531514167786,217.86199951171875,0.0,0.0,0.0,0.0,2.499999936844688e-05,0.02500000037252903,1000.0,100000000.0,0.30000001192092896
630,2,0.39451974630355835,0.20250000059604645,-1.007954716682434,1.1669010291370796e-06,402.1917724609375,54.243896484375,-0.99242103099823,291.06982421875,0.0,0.0,0.0,0.0,2.499999936844688e-05,0.02500000037252903,1000.0,100000000.0,0.30000001192092896
631,2,0.39451974630355835,0.20749999582767487,-1.0079535245895386,9.936692322298768e-07,406.0511779785156,35.60372543334961,-1.7782599925994873,293.9443054199219,0.0,0.0,0.0,0.0,2.499999936844688e-05,0.02500000037252903,1000.0,100000000.0,0.30000001192092896
632,2,0.38951975107192993,0.21250000596046448,-1.0079543590545654,9.239995506504783e-07,312.54730224609375,-27.10586166381836,-1.8346030712127686,227.53529357910156,0.0,0.0,0.0,0.0,2.499999936844688e-05,0.02500000037252903,1000.0,100000000.0,0.30000001192092896
633,2,0.38951975107192993,0.2175000011920929,-1.0079548358917236,8.149595487338956e-07,319.8748474121094,-100.34652709960938,-2.3975367546081543,232.99234008789062,0.0,0.0,0.0,0.0,2.499999936844688e-05,0.02500000037252903,1000.0,100000000.0,0.30000001192092896
634,2,0.39451974630355835,0.21250000596046448,-1.00795316696167,8.451187341051991e-07,414.1160583496094,-25.828428268432617,-2.3529932498931885,302.45635986328125,0.0,0.0,0.0,0.0,2.499999936844688e-05,0.02500000037252903,1000.0,100000000.0,0.30000001192092896
635,2,0.39451974630355835,0.2175000011920929,-1.0079536437988281,7.212492505459522e-07,418.57220458984375,-99.07317352294922,-2.7166526317596436,305.7790222167969,0.0,0.0,0.0,0.0,2.499999936844688e-05,0.02500000037252903,1000.0,100000000.0,0.30000001192092896
636,2,0.38951975107192993,0.2224999964237213,-1.007956862449646,7.046670589261339e-07,326.3114013671875,-26.342214584350586,-2.6747794151306152,237.7637176513672,0.0,0.0,0.0,0.0,2.499999936844688e-05,0.02500000037252903,1000.0,100000000.0,0.30000001192092896
637,2,0.38951975107192993,0.22750000655651093,-1.0079569816589355,5.931193527430878e-07,331.9127502441406,70.03033447265625,-2.6664655208587646,241.93429565429688,0.0,0.0,0.0,0.0,2.499999936844688e-05,0.02500000037252903,1000.0,100000000.0,0.30000001192092896
638,2,0.39451974630355835,0.2224999964237213,-1.0079556703567505,6.036944455445337e-07,423.8016052246094,-25.3353271484375,-2.8890960216522217,310.3923034667969,0.0,0.0,0.0,0.0,2.499999936844688e-05,0.02500000037252903,1000.0,100000000.0,0.30000001192092896
639,2,0.39451974630355835,0.22750000655651093,-1.0079556703567505,4.924519885207701e-07,427.379150390625,71.03461456298828,-2.870288848876953,313.0549621582031,0.0,0.0,0.0,0.0,2.499999936844688e-05,0.02500000037252903,1000.0,100000000.0,0.30000001192092896
640,2,0.38951975107192993,0.23250000178813934,-1.007955551147461,4.818346042156918e-07,336.0061340332031,20.864477157592773,-2.5462822914123535,244.98460388183594,0.0,0.0,0.0,0.0,2.499999936844688e-05,0.02500000037252903,1000.0,100000000.0,0.30000001192092896
641,2,0.38951975107192993,0.23749999701976776,-1.0079551935195923,3.708139217906137e-07,338.5962219238281,2.227593183517456,-2.3142683506011963,246.91165161132812,0.0,0.0,0.0,0.0,2.499999936844688e-05,0.02500000037252903,1000.0,100000000.0,0.30000001192092896
642,2,0.39451974630355835,0.23250000178813934,-1.0079541206359863,3.8507249655594933e-07,430.51239013671875,21.26719093322754,-2.735569953918457,315.7873840332031,0.0,0.0,0.0,0.0,2.499999936844688e-05,0.02500000037252903,1000.0,100000000.0,0.30000001192092896
643,2,0.39451974630355835,0.23749999701976776,-1.0079536437988281,2.8155679387964483e-07,431.8372497558594,2.6309523582458496,-2.4850082397460938,316.7767028808594,0.0,0.0,0.0,0.0,2.499999936844688e-05,0.02500000037252903,1000.0,100000000.0,0.30000001192092896
644,2,0.38951975107192993,0.24250000715255737,-1.007955551147461,2.631308859690762e-07,340.6472473144531,-45.894710540771484,-2.070736885070801,248.709228515625,0.0,0.0,0.0,0.0,2.499999936844688e-05,0.02500000037252903,1000.0,100000000.0,0.30000001192092896
645,2,0.38951975107192993,0.2475000023841858,-1.007956624031067,1.5878548254022462e-07,341.0479736328125,-119.13821411132812,-1.8157044649124146,249.00411987304688,0.0,0.0,0.0,0.0,2.499999936844688e-05,0.02500000037252903,1000.0,100000000.0,0.30000001192092896
646,2,0.39451974630355835,0.24250000715255737,-1.0079541206359863,1.8146182867440075e-07,432.8504333496094,-45.93004608154297,-2.2206032276153564,317.8473205566406,0.0,0.0,0.0,0.0,2.499999936844688e-05,0.02500000037252903,1000.0,100000000.0,0.30000001192092896
647,2,0.39451974630355835,0.2475000023841858,-1.0079551935195923,8.47876151510718e-08,432.5450439453125,-119.17315673828125,-1.942395567893982,317.6192932128906,0.0,0.0,0.0,0.0,2.499999936844688e-05,0.02500000037252903,1000.0,100000000.0,0.30000001192092896
648,2,0.38951975107192993,0.2524999976158142,-1.0079588890075684,5.800245617137989e-08,342.2488098144531,-35.63928985595703,-1.61189603805542,250.22567749023438,0.0,0.0,0.0,0.0,2.499999936844688e-05,0.02500000037252903,1000.0,100000000.0,0.30000001192092896
649,2,0.38951975107192993,0.2574999928474426,-1.0079593658447266,-3.921841340570609e-08,343.0467834472656,-45.5250358581543,-1.459304690361023,250.82481384277344,0.0,0.0,0.0,0.0,2.499999936844688e-05,0.02500000037252903,1000.0,100000000.0,0.30000001192092896
650,2,0.39451974630355835,0.2524999976158142,-1.0079574584960938,-1.0679775286348558e-08,433.0908203125,-35.40400695800781,-1.7283252477645874,318.1325378417969,0.0,0.0,0.0,0.0,2.499999936844688e-05,0.02500000037252903,1000.0,100000000.0,0.30000001192092896
651,2,0.39451974630355835,0.2574999928474426,-1.007957935333252,-1.0494034796693086e-07,434.08111572265625,-45.272911071777344,-1.5783673524856567,318.8729248046875,0.0,0.0,0.0,0.0,2.499999936844688e-05,0.02500000037252903,1000.0,100000000.0,0.30000001192092896
652,2,0.38951975107192993,0.26249998807907104,-1.0079584121704102,-1.3250392782993003e-07,344.2568664550781,151.94261169433594,-1.427594780921936,252.10971069335938,0.0,0.0,0.0,0.0,2.499999936844688e-05,0.02500000037252903,1000.0,100000000.0,0.30000001192092896
653,2,0.38951975107192993,0.26750001311302185,-1.0079561471939087,-2.218538952547533e-07,344.5274658203125,266.38250732421875,-1.5167579650878906,252.31817626953125,0.0,0.0,0.0,0.0,2.499999936844688e-05,0.02500000037252903,1000.0,100000000.0,0.30000001192092896
654,2,0.39451974630355835,0.26249998807907104,-1.007956862449646,-2.0001661482638156e-07,434.5964050292969,152.00772094726562,-1.5646823644638062,319.1844787597656,0.0,0.0,0.0,0.0,2.499999936844688e-05,0.02500000037252903,1000.0,100000000.0,0.30000001192092896
655,2,0.39451974630355835,0.26750001311302185,-1.0079545974731445,-2.9590836447823676e-07,434.8733825683594,266.4458312988281,-1.6872631311416626,319.38702392578125,0.0,0.0,0.0,0.0,2.499999936844688e-05,0.02500000037252903,1000.0,100000000.0,0.30000001192092896
656,2,0.38951975107192993,0.27250000834465027,-1.0079513788223267,-3.065877649532922e-07,346.22515869140625,52.6021842956543,-1.7971521615982056,253.99774169921875,0.0,0.0,0.0,0.0,2.499999936844688e-05,0.02500000037252903,1000.0,100000000.0,0.30000001192092896
657,2,0.38951975107192993,0.2775000035762787,-1.0079500675201416,-3.8670805224683136e-07,347.86932373046875,-93.33240509033203,-2.268775701522827,255.2212371826172,0.0,0.0,0.0,0.0,2.499999936844688e-05,0.02500000037252903,1000.0,100000000.0,0.30000001192092896
658,2,0.39451974630355835,0.27250000834465027,-1.007949948310852,-3.937333872272575e-07,434.6770935058594,52.707115173339844,-1.993743658065796,319.01580810546875,0.0,0.0,0.0,0.0,2.499999936844688e-05,0.02500000037252903,1000.0,100000000.0,0.30000001192092896
659,2,0.39451974630355835,0.2775000035762787,-1.007948637008667,-4.934945536660962e-07,434.81878662109375,-93.22482299804688,-2.484124183654785,319.1209716796875,0.0,0.0,0.0,0.0,2.499999936844688e-05,0.02500000037252903,1000.0,100000000.0,0.30000001192092896
660,2,0.38951975107192993,0.2824999988079071,-1.0079524517059326,-4.7633008648517716e-07,353.7546081542969,-29.542945861816406,-2.8681206703186035,258.6734924316406,0.0,0.0,0.0,0.0,2.499999936844688e-05,0.02500000037252903,1000.0,100000000.0,0.30000001192092896
661,2,0.38951975107192993,0.2874999940395355,-1.0079526901245117,-5.754516223532846e-07,367.0061950683594,-39.42512512207031,-3.5951669216156006,268.5414733886719,0.0,0.0,0.0,0.0,2.499999936844688e-05,0.02500000037252903,1000.0,100000000.0,0.30000001192092896
662,2,0.39451974630355835,0.2824999988079071,-1.0079511404037476,-6.029736709933786e-07,437.17108154296875,-27.214937210083008,-2.9635376930236816,319.87396240234375,0.0,0.0,0.0,0.0,2.499999936844688e-05,0.02500000037252903,1000.0,100000000.0,0.30000001192092896
663,2,0.39451974630355835,0.2874999940395355,-1.007951259613037,-7.221677265079052e-07,445.3769836425781,-37.084632873535156,-3.4319705963134766,325.9810485839844,0.0,0.0,0.0,0.0,2.499999936844688e-05,0.02500000037252903,1000.0,100000000.0,0.30000001192092896
664,2,0.38951975107192993,0.29249998927116394,-1.007951259613037,-7.369454237959872e-07,378.051025390625,175.1991729736328,-3.9966394901275635,270.7938232421875,0.0,0.0,0.0,0.0,2.499999936844688e-05,0.02500000037252903,1000.0,100000000.0,0.30000001192092896
665,2,0.38951975107192993,0.29750001430511475,-1.007948398590088,-9.608116897652508e-07,406.8460998535156,289.64849853515625,-4.072526931762695,292.2409973144531,0.0,0.0,0.0,0.0,2.499999936844688e-05,0.02500000037252903,1000.0,100000000.0,0.30000001192092896
666,2,0.39451974630355835,0.29249998927116394,-1.0079498291015625,-8.824785027172766e-07,449.75531005859375,179.47708129882812,-3.249601125717163,325.2967834472656,0.0,0.0,0.0,0.0,2.499999936844688e-05,0.02500000037252903,1000.0,100000000.0,0.30000001192092896
667,2,0.39451974630355835,0.29750001430511475,-1.0079469680786133,-1.0839059996214928e-06,463.82928466796875,293.9420471191406,-2.4164488315582275,335.7785949707031,0.0,0.0,0.0,0.0,2.499999936844688e-05,0.02500000037252903,1000.0,100000000.0,0.30000001192092896
668,2,0.38951975107192993,0.30250000953674316,-1.0079429149627686,-1.2938107829540968e-06,400.9078063964844,118.16580200195312,-3.977224588394165,276.906005859375,0.0,0.0,0.0,0.0,2.499999936844688e-05,0.02500000037252903,1000.0,100000000.0,0.30000001192092896
669,2,0.38951975107192993,0.3075000047683716,-1.0079405307769775,-1.7359502635372337e-06,396.7254638671875,26.8388671875,-3.7107608318328857,273.7911682128906,0.0,0.0,0.0,0.0,2.499999936844688e-05,0.02500000037252903,1000.0,100000000.0,0.30000001192092896
670,2,0.39451974630355835,0.30250000953674316,-1.007941484451294,-1.3909738072470645e-06,449.7496643066406,116.51054382324219,-1.5026227235794067,314.73724365234375,0.0,0.0,0.0,0.0,2.499999936844688e-05,0.02500000037252903,1000.0,100000000.0,0.30000001192092896
671,2,0.39451974630355835,0.3075000047683716,-1.0079389810562134,-1.80368999735947e-06,442.8335876464844,25.18528175354004,-0.5081261396408081,309.5908508300781,0.0,0.0,0.0,0.0,2.499999936844688e-05,0.02500000037252903,1000.0,100000000.0,0.30000001192092896
672,2,0.39951974153518677,0.19249999523162842,-1.007955551147461,1.8146230331694824e-06,801.4667358398438,26.37080955505371,-7.226651191711426,578.264892578125,0.0,0.0,0.0,0.0,2.499999936844688e-05,0.02500000037252903,1000.0,100000000.0,0.30000001192092896
673,2,0.39951974153518677,0.19750000536441803,-1.0079543590545654,1.410134473189828e-06,795.2343139648438,122.73950958251953,-4.546257972717285,573.6245727539062,0.0,0.0,0.0,0.0,2.499999936844688e-05,0.02500000037252903,1000.0,100000000.0,0.30000001192092896
674,2,0.4045197367668152,0.19249999523162842,-1.0079525709152222,1.3850573168383562e-06,197.73854064941406,24.162870407104492,-13.603759765625,137.64837646484375,0.0,0.0,0.0,0.0,2.499999936844688e-05,0.02500000037252903,1000.0,100000000.0,0.30000001192092896
675,2,0.4045197367668152,0.19750000536441803,-1.0079514980316162,1.1612000889726914e-06,188.4928436279297,120.53241729736328,-7.760383605957031,130.76455688476562,0.0,0.0,0.0,0.0,2.499999936844688e-05,0.02500000037252903,1000.0,100000000.0,0.30000001192092896
676,2,0.39951974153518677,0.20250000059604645,-1.0079519748687744,1.1110601008113008e-06,804.3569946289062,54.18696975708008,-3.159684419631958,589.6763305664062,0.0,0.0,0.0,0.0,2.499999936844688e-05,0.02500000037252903,1000.0,100000000.0,0.30000001192092896
677,2,0.39951974153518677,0.20749999582767487,-1.0079506635665894,9.174011665891157e-07,797.7692260742188,35.55179977416992,-3.0646584033966064,584.7755126953125,0.0,0.0,0.0,0.0,2.499999936844688e-05,0.02500000037252903,1000.0,100000000.0,0.30000001192092896
678,2,0.4045197367668152,0.20250000059604645,-1.0079489946365356,9.619502634450328e-07,180.780517578125,51.70759963989258,-4.5122504234313965,126.24044799804688,0.0,0.0,0.0,0.0,2.499999936844688e-05,0.02500000037252903,1000.0,100000000.0,0.30000001192092896
679,2,0.4045197367668152,0.20749999582767487,-1.0079478025436401,7.873102845223912e-07,170.35142517089844,33.0692024230957,-3.8593382835388184,118.4733657836914,0.0,0.0,0.0,0.0,2.499999936844688e-05,0.02500000037252903,1000.0,100000000.0,0.30000001192092896
680,2,0.39951974153518677,0.21250000596046448,-1.0079504251480103,7.53404492570553e-07,798.3532104492188,-25.30385398864746,-3.0937206745147705,588.0814208984375,0.0,0.0,0.0,0.0,2.499999936844688e-05,0.02500000037252903,1000.0,100000000.0,0.30000001192092896
681,2,0.39951974153518677,0.2175000011920929,-1.0079509019851685,6.190697376950993e-07,796.2965087890625,-98.54454803466797,-3.2465572357177734,586.5499267578125,0.0,0.0,0.0,0.0,2.499999936844688e-05,0.02500000037252903,1000.0,100000000.0,0.30000001192092896
682,2,0.4045197367668152,0.21250000596046448,-1.007947564125061,6.315378868748667e-07,165.77069091796875,-26.38744354248047,-3.545943260192871,116.91465759277344,0.0,0.0,0.0,0.0,2.499999936844688e-05,0.02500000037252903,1000.0,100000000.0,0.30000001192092896
683,2,0.4045197367668152,0.2175000011920929,-1.0079479217529297,4.946327294419461e-07,160.89056396484375,-99.6295394897461,-3.572075605392456,113.28021240234375,0.0,0.0,0.0,0.0,2.499999936844688e-05,0.02500000037252903,1000.0,100000000.0,0.30000001192092896
684,2,0.39951974153518677,0.2224999964237213,-1.0079526901245117,4.967894824403629e-07,796.813720703125,-24.902902603149414,-3.267421245574951,588.2463989257812,0.0,0.0,0.0,0.0,2.499999936844688e-05,0.02500000037252903,1000.0,100000000.0,0.30000001192092896
685,2,0.39951974153518677,0.22750000655651093,-1.0079528093338013,3.8656176570839307e-07,795.4283447265625,71.4671859741211,-3.156243324279785,587.2163696289062,0.0,0.0,0.0,0.0,2.499999936844688e-05,0.02500000037252903,1000.0,100000000.0,0.30000001192092896
686,2,0.4045197367668152,0.2224999964237213,-1.0079498291015625,3.733428570740216e-07,159.7045440673828,-25.659936904907227,-3.502164840698242,114.07975769042969,0.0,0.0,0.0,0.0,2.499999936844688e-05,0.02500000037252903,1000.0,100000000.0,0.30000001192092896
687,2,0.4045197367668152,0.22750000655651093,-1.0079498291015625,2.676666497336555e-07,156.39625549316406,70.70685577392578,-3.3362109661102295,111.61491394042969,0.0,0.0,0.0,0.0,2.499999936844688e-05,0.02500000037252903,1000.0,100000000.0,0.30000001192092896
688,2,0.39951974153518677,0.23250000178813934,-1.0079511404037476,2.838323780451901e-07,795.3507690429688,21.323286056518555,-2.939469575881958,587.9456787109375,0.0,0.0,0.0,0.0,2.499999936844688e-05,0.02500000037252903,1000.0,100000000.0,0.30000001192092896
689,2,0.39951974153518677,0.23749999701976776,-1.0079506635665894,1.8860200157178042e-07,793.9134521484375,2.6897525787353516,-2.617058515548706,586.886474609375,0.0,0.0,0.0,0.0,2.499999936844688e-05,0.02500000037252903,1000.0,100000000.0,0.30000001192092896
690,2,0.4045197367668152,0.23250000178813934,-1.0079482793807983,1.730489458395823e-07,155.50686645507812,20.783220291137695,-3.0692386627197266,112.10419464111328,0.0,0.0,0.0,0.0,2.499999936844688e-05,0.02500000037252903,1000.0,100000000.0,0.30000001192092896
691,2,0.4045197367668152,0.23749999701976776,-1.0079476833343506,8.949007224146044e-08,153.23863220214844,2.145026683807373,-2.701284885406494,110.41373443603516,0.0,0.0,0.0,0.0,2.499999936844688e-05,0.02500000037252903,1000.0,100000000.0,0.30000001192092896
692,2,0.39951974153518677,0.24250000715255737,-1.0079511404037476,9.695673952592188e-08,793.6389770507812,-46.040008544921875,-2.27909517288208,587.0389404296875,0.0,0.0,0.0,0.0,2.499999936844688e-05,0.02500000037252903,1000.0,100000000.0,0.30000001192092896
693,2,0.39951974153518677,0.2475000023841858,-1.0079522132873535,8.896646974676514e-09,793.1253662109375,-119.2808837890625,-1.9256153106689453,586.66162109375,0.0,0.0,0.0,0.0,2.499999936844688e-05,0.02500000037252903,1000.0,100000000.0,0.30000001192092896
694,2,0.4045197367668152,0.24250000715255737,-1.0079481601715088,1.0095957847511272e-08,152.65016174316406,-46.11698532104492,-2.3147661685943604,110.39842987060547,0.0,0.0,0.0,0.0,2.499999936844688e-05,0.02500000037252903,1000.0,100000000.0,0.30000001192092896
695,2,0.4045197367668152,0.2475000023841858,-1.0079492330551147,-6.513335648605789e-08,152.4168243408203,-119.36298370361328,-1.9097459316253662,110.2253646850586,0.0,0.0,0.0,0.0,2.499999936844688e-05,0.02500000037252903,1000.0,100000000.0,0.30000001192092896
696,2,0.39951974153518677,0.2524999976158142,-1.0079545974731445,-8.047233279739885e-08,792.3524169921875,-35.311893463134766,-1.6306228637695312,585.9769287109375,0.0,0.0,0.0,0.0,2.499999936844688e-05,0.02500000037252903,1000.0,100000000.0,0.30000001192092896
697,2,0.39951974153518677,0.2574999928474426,-1.0079548358917236,-1.7114996353484457e-07,791.5858154296875,-45.196720123291016,-1.39411199092865,585.4138793945312,0.0,0.0,0.0,0.0,2.499999936844688e-05,0.02500000037252903,1000.0,100000000.0,0.30000001192092896
698,2,0.4045197367668152,0.2524999976158142,-1.0079513788223267,-1.437778820445601e-07,151.0539093017578,-35.651004791259766,-1.5589418411254883,108.91151428222656,0.0,0.0,0.0,0.0,2.499999936844688e-05,0.02500000037252903,1000.0,100000000.0,0.30000001192092896
699,2,0.4045197367668152,0.2574999928474426,-1.0079517364501953,-2.2583719783142442e-07,149.60426330566406,-45.522605895996094,-1.2623344659805298,107.83319091796875,0.0,0.0,0.0,0.0,2.499999936844688e-05,0.02500000037252903,1000.0,100000000.0,0.30000001192092896
700,2,0.39951974153518677,0.26249998807907104,-1.0079538822174072,-2.67654201024925e-07,789.5906372070312,151.91407775878906,-1.2934582233428955,583.3787231445312,0.0,0.0,0.0,0.0,2.499999936844688e-05,0.02500000037252903,1000.0,100000000.0,0.30000001192092896
701,2,0.39951974153518677,0.26750001311302185,-1.0079516172409058,-3.6998483210481936e-07,788.2435302734375,266.35736083984375,-1.3286409378051758,582.3704833984375,0.0,0.0,0.0,0.0,2.499999936844688e-05,0.02500000037252903,1000.0,100000000.0,0.30000001192092896
702,2,0.4045197367668152,0.26249998807907104,-1.0079509019851685,-3.1889987894828664e-07,146.2169647216797,151.4367218017578,-1.1025197505950928,104.2861099243164,0.0,0.0,0.0,0.0,2.499999936844688e-05,0.02500000037252903,1000.0,100000000.0,0.30000001192092896
703,2,0.4045197367668152,0.26750001311302185,-1.007948637008667,-4.2296582591916376e-07,144.28599548339844,265.8823547363281,-1.0794901847839355,102.84815216064453,0.0,0.0,0.0,0.0,2.499999936844688e-05,0.02500000037252903,1000.0,100000000.0,0.30000001192092896
704,2,0.39951974153518677,0.27250000834465027,-1.0079470872879028,-4.807244522453402e-07,784.3175048828125,52.36785888671875,-1.5459825992584229,578.5828247070312,0.0,0.0,0.0,0.0,2.499999936844688e-05,0.02500000037252903,1000.0,100000000.0,0.30000001192092896
705,2,0.39951974153518677,0.2775000035762787,-1.0079456567764282,-5.998764436299098e-07,780.7757568359375,-93.57061004638672,-1.9454851150512695,575.9449462890625,0.0,0.0,0.0,0.0,2.499999936844688e-05,0.02500000037252903,1000.0,100000000.0,0.30000001192092896
706,2,0.4045197367668152,0.27250000834465027,-1.0079439878463745,-5.42340330866864e-07,138.42294311523438,51.21210861206055,-1.2398918867111206,96.97613525390625,0.0,0.0,0.0,0.0,2.499999936844688e-05,0.02500000037252903,1000.0,100000000.0,0.30000001192092896
707,2,0.4045197367668152,0.2775000035762787,-1.007942795753479,-6.770272307221603e-07,133.69581604003906,-94.72332763671875,-1.5837339162826538,93.45651245117188,0.0,0.0,0.0,0.0,2.499999936844688e-05,0.02500000037252903,1000.0,100000000.0,0.30000001192092896
708,2,0.39951974153518677,0.2824999988079071,-1.0079482793807983,-7.265908834597212e-07,772.7722778320312,-26.813587188720703,-2.2992401123046875,569.0638427734375,0.0,0.0,0.0,0.0,2.499999936844688e-05,0.02500000037252903,1000.0,100000000.0,0.30000001192092896
709,2,0.39951974153518677,0.2874999940395355,-1.0079482793807983,-8.608641905993863e-07,763.3596801757812,-36.69657516479492,-2.6072378158569336,562.0531616210938,0.0,0.0,0.0,0.0,2.499999936844688e-05,0.02500000037252903,1000.0,100000000.0,0.30000001192092896
710,2,0.4045197367668152,0.2824999988079071,-1.0079454183578491,-8.170645173777302e-07,121.73797607421875,-30.71167755126953,-1.8661866188049316,83.83531951904297,0.0,0.0,0.0,0.0,2.499999936844688e-05,0.02500000037252903,1000.0,100000000.0,0.30000001192092896
711,2,0.4045197367668152,0.2874999940395355,-1.0079455375671387,-9.624483254810912e-07,105.0683822631836,-40.58466720581055,-2.087249755859375,71.42215728759766,0.0,0.0,0.0,0.0,2.499999936844688e-05,0.02500000037252903,1000.0,100000000.0,0.30000001192092896
712,2,0.39951974153518677,0.29249998927116394,-1.0079469680786133,-1.0081422487928648e-06,750.7490234375,180.64779663085938,-1.9630866050720215,551.3312377929688,0.0,0.0,0.0,0.0,2.499999936844688e-05,0.02500000037252903,1000.0,100000000.0,0.30000001192092896
713,2,0.39951974153518677,0.29750001430511475,-1.007944107055664,-1.1684246601362247e-06,739.3572998046875,295.09808349609375,-0.36678436398506165,542.8513793945312,0.0,0.0,0.0,0.0,2.499999936844688e-05,0.02500000037252903,1000.0,100000000.0,0.30000001192092896
714,2,0.4045197367668152,0.29249998927116394,-1.0079443454742432,-1.0796378546729102e-06,89.84601593017578,175.55218505859375,-1.167281150817871,62.591705322265625,0.0,0.0,0.0,0.0,2.499999936844688e-05,0.02500000037252903,1000.0,100000000.0,0.30000001192092896
715,2,0.4045197367668152,0.29750001430511475,-1.0079416036605835,-1.1686327070492553e-06,67.7808609008789,290.0045471191406,0.8937875032424927,46.15987777709961,0.0,0.0,0.0,0.0,2.499999936844688e-05,0.02500000037252903,1000.0,100000000.0,0.30000001192092896
716,2,0.39951974153518677,0.30250000953674316,-1.0079386234283447,-1.4219556305761216e-06,727.6630249023438,116.79690551757812,3.359200954437256,526.1392211914062,0.0,0.0,0.0,0.0,2.499999936844688e-05,0.02500000037252903,1000.0,100000000.0,0.30000001192092896
717,2,0.39951974153518677,0.3075000047683716,-1.0079360008239746,-1.7687431181911961e-06,742.3479614257812,25.467018127441406,9.214600563049316,537.0718994140625,0.0,0.0,0.0,0.0,2.499999936844688e-05,0.02500000037252903,1000.0,100000000.0,0.30000001192092896
718,2,0.4045197367668152,0.30250000953674316,-1.0079360008239746,-1.2377536222629715e-06,74.21175384521484,122.54473876953125,6.43070125579834,54.02943420410156,0.0,0.0,0.0,0.0,2.499999936844688e-05,0.02500000037252903,1000.0,100000000.0,0.30000001192092896
719,2,0.4045197367668152,0.3075000047683716,-1.0079333782196045,-1.2870088994532125e-06,98.76150512695312,31.212860107421875,15.443707466125488,72.31146240234375,0.0,0.0,0.0,0.0,2.499999936844688e-05,0.02500000037252903,1000.0,100000000.0,0.30000001192092896
720,2,0.4095197319984436,0.19249999523162842,-1.0079524517059326,8.966838436208491e-07,-497.5472412109375,21.746232986450195,-5.1621880531311035,-372.2600402832031,0.0,0.0,0.0,0.0,2.499999936844688e-05,0.02500000037252903,1000.0,100000000.0,0.30000001192092896
721,2,0.4095197319984436,0.19750000536441803,-1.0079514980316162,8.829750868244446e-07,-508.0577392578125,118.11620330810547,-3.626544237136841,-380.0863342285156,0.0,0.0,0.0,0.0,2.499999936844688e-05,0.02500000037252903,1000.0,100000000.0,0.30000001192092896
722,2,0.414519727230072,0.19750000536441803,-1.0079530477523804,8.385465548599313e-07,1.6194239854812622,115.16192626953125,-0.7474375367164612,-1.8833739757537842,0.0,0.0,0.0,0.0,2.499999936844688e-05,0.02500000037252903,1000.0,100000000.0,0.30000001192092896
723,2,0.4095197319984436,0.20250000059604645,-1.0079491138458252,8.000611160241533e-07,-529.9337158203125,48.7285041809082,-3.029094696044922,-402.4192810058594,0.0,0.0,0.0,0.0,2.499999936844688e-05,0.02500000037252903,1000.0,100000000.0,0.30000001192092896
724,2,0.4095197319984436,0.20749999582767487,-1.0079479217529297,6.47944887077756e-07,-542.9923095703125,30.09249496459961,-3.369847536087036,-412.14337158203125,0.0,0.0,0.0,0.0,2.499999936844688e-05,0.02500000037252903,1000.0,100000000.0,0.30000001192092896
725,2,0.414519727230072,0.20250000059604645,-1.0079506635665894,7.25180029803596e-07,-21.04451560974121,45.396480560302734,-1.9806184768676758,-24.968568801879883,0.0,0.0,0.0,0.0,2.499999936844688e-05,0.02500000037252903,1000.0,100000000.0,0.30000001192092896
726,2,0.414519727230072,0.20749999582767487,-1.0079494714736938,5.415329837887839e-07,-33.92948913574219,26.75872802734375,-2.999332904815674,-34.56409454345703,0.0,0.0,0.0,0.0,2.499999936844688e-05,0.02500000037252903,1000.0,100000000.0,0.30000001192092896
727,2,0.4095197319984436,0.21250000596046448,-1.0079476833343506,5.024522238272766e-07,-552.0431518554688,-28.039560317993164,-3.6525700092315674,-417.7817077636719,0.0,0.0,0.0,0.0,2.499999936844688e-05,0.02500000037252903,1000.0,100000000.0,0.30000001192092896
728,2,0.4095197319984436,0.2175000011920929,-1.0079480409622192,3.635830694292963e-07,-560.963134765625,-101.28162384033203,-3.877243995666504,-424.4206848144531,0.0,0.0,0.0,0.0,2.499999936844688e-05,0.02500000037252903,1000.0,100000000.0,0.30000001192092896
729,2,0.414519727230072,0.21250000596046448,-1.0079492330551147,3.734533322585776e-07,-42.005836486816406,-30.53985023498535,-3.6912543773651123,-38.54549789428711,0.0,0.0,0.0,0.0,2.499999936844688e-05,0.02500000037252903,1000.0,100000000.0,0.30000001192092896
730,2,0.414519727230072,0.2175000011920929,-1.007949709892273,2.209409615261393e-07,-51.9699821472168,-103.78399658203125,-4.056205749511719,-45.96572494506836,0.0,0.0,0.0,0.0,2.499999936844688e-05,0.02500000037252903,1000.0,100000000.0,0.30000001192092896
731,2,0.4095197319984436,0.2224999964237213,-1.007949948310852,2.442569950744655e-07,-565.669921875,-26.958036422729492,-3.850276231765747,-425.7413330078125,0.0,0.0,0.0,0.0,2.499999936844688e-05,0.02500000037252903,1000.0,100000000.0,0.30000001192092896
732,2,0.4095197319984436,0.22750000655651093,-1.007949948310852,1.4447275020756933e-07,-573.5910034179688,69.40974426269531,-3.5715818405151367,-431.6380920410156,0.0,0.0,0.0,0.0,2.499999936844688e-05,0.02500000037252903,1000.0,100000000.0,0.30000001192092896
733,2,0.414519727230072,0.2224999964237213,-1.0079516172409058,9.997538086281565e-08,-56.216915130615234,-29.330577850341797,-4.065327167510986,-45.780059814453125,0.0,0.0,0.0,0.0,2.499999936844688e-05,0.02500000037252903,1000.0,100000000.0,0.30000001192092896
734,2,0.414519727230072,0.22750000655651093,-1.0079517364501953,1.0555741170037436e-08,-65.82527923583984,67.03325653076172,-3.718573808670044,-52.935455322265625,0.0,0.0,0.0,0.0,2.499999936844688e-05,0.02500000037252903,1000.0,100000000.0,0.30000001192092896
735,2,0.4095197319984436,0.23250000178813934,-1.0079482793807983,5.931613955567627e-08,-577.492431640625,19.955608367919922,-3.195233106613159,-433.04693603515625,0.0,0.0,0.0,0.0,2.499999936844688e-05,0.02500000037252903,1000.0,100000000.0,0.30000001192092896
736,2,0.4095197319984436,0.23749999701976776,-1.0079479217529297,-1.1212831552143143e-08,-582.4279174804688,1.3177653551101685,-2.7212679386138916,-436.72100830078125,0.0,0.0,0.0,0.0,2.499999936844688e-05,0.02500000037252903,1000.0,100000000.0,0.30000001192092896
737,2,0.414519727230072,0.23250000178813934,-1.0079501867294312,-6.042183287036096e-08,-70.49877166748047,18.48046112060547,-3.274470090866089,-54.579410552978516,0.0,0.0,0.0,0.0,2.499999936844688e-05,0.02500000037252903,1000.0,100000000.0,0.30000001192092896
738,2,0.414519727230072,0.23749999701976776,-1.007949709892273,-1.1295772139874316e-07,-76.4555892944336,-0.16054999828338623,-2.7329914569854736,-59.01496887207031,0.0,0.0,0.0,0.0,2.499999936844688e-05,0.02500000037252903,1000.0,100000000.0,0.30000001192092896
739,2,0.4095197319984436,0.24250000715255737,-1.0079482793807983,-7.685214598041057e-08,-585.14697265625,-46.375675201416016,-2.224437713623047,-438.2549743652344,0.0,0.0,0.0,0.0,2.499999936844688e-05,0.02500000037252903,1000.0,100000000.0,0.30000001192092896
740,2,0.4095197319984436,0.2475000023841858,-1.0079492330551147,-1.376017308984956e-07,-587.4943237304688,-119.61743927001953,-1.7047796249389648,-440.0035400390625,0.0,0.0,0.0,0.0,2.499999936844688e-05,0.02500000037252903,1000.0,100000000.0,0.30000001192092896
741,2,0.414519727230072,0.24250000715255737,-1.0079500675201416,-1.594643066482604e-07,-80.10610961914062,-47.13471221923828,-2.1648402214050293,-61.15212631225586,0.0,0.0,0.0,0.0,2.499999936844688e-05,0.02500000037252903,1000.0,100000000.0,0.30000001192092896
742,2,0.414519727230072,0.2475000023841858,-1.007951021194458,-1.9994152467006643e-07,-83.24347686767578,-120.37879180908203,-1.5700207948684692,-63.48801040649414,0.0,0.0,0.0,0.0,2.499999936844688e-05,0.02500000037252903,1000.0,100000000.0,0.30000001192092896
743,2,0.4095197319984436,0.2524999976158142,-1.0079514980316162,-2.036087209944526e-07,-589.7057495117188,-35.94883728027344,-1.2109943628311157,-442.10504150390625,0.0,0.0,0.0,0.0,2.499999936844688e-05,0.02500000037252903,1000.0,100000000.0,0.30000001192092896
744,2,0.4095197319984436,0.2574999928474426,-1.0079518556594849,-2.748724909906741e-07,-590.33935546875,-45.83021545410156,-0.7430967688560486,-442.5755920410156,0.0,0.0,0.0,0.0,2.499999936844688e-05,0.02500000037252903,1000.0,100000000.0,0.30000001192092896
745,2,0.414519727230072,0.2524999976158142,-1.0079532861709595,-2.460111261370912e-07,-85.71534729003906,-36.0167350769043,-0.9820752143859863,-65.82386016845703,0.0,0.0,0.0,0.0,2.499999936844688e-05,0.02500000037252903,1000.0,100000000.0,0.30000001192092896
746,2,0.414519727230072,0.2574999928474426,-1.0079537630081177,-2.9767230103061593e-07,-85.88011169433594,-45.888145446777344,-0.4009663760662079,-65.94677734375,0.0,0.0,0.0,0.0,2.499999936844688e-05,0.02500000037252903,1000.0,100000000.0,0.30000001192092896
747,2,0.4095197319984436,0.26249998807907104,-1.0079511404037476,-3.621932194164401e-07,-593.4957885742188,151.04795837402344,-0.3806755840778351,-446.3974914550781,0.0,0.0,0.0,0.0,2.499999936844688e-05,0.02500000037252903,1000.0,100000000.0,0.30000001192092896
748,2,0.4095197319984436,0.26750001311302185,-1.0079487562179565,-4.6557090627175057e-07,-594.2244262695312,265.489501953125,-0.123729407787323,-446.9334411621094,0.0,0.0,0.0,0.0,2.499999936844688e-05,0.02500000037252903,1000.0,100000000.0,0.30000001192092896
749,2,0.414519727230072,0.26249998807907104,-1.0079528093338013,-3.689642653625924e-07,-88.89519500732422,150.99505615234375,0.09453411400318146,-69.97257232666016,0.0,0.0,0.0,0.0,2.499999936844688e-05,0.02500000037252903,1000.0,100000000.0,0.30000001192092896
750,2,0.414519727230072,0.26750001311302185,-1.0079506635665894,-4.5988701913302066e-07,-88.93929290771484,265.4310302734375,0.5044668912887573,-70.00489807128906,0.0,0.0,0.0,0.0,2.499999936844688e-05,0.02500000037252903,1000.0,100000000.0,0.30000001192092896
751,2,0.4095197319984436,0.27250000834465027,-1.0079442262649536,-5.914102416681999e-07,-601.8685302734375,49.737979888916016,-0.06852121651172638,-454.7884521484375,0.0,0.0,0.0,0.0,2.499999936844688e-05,0.02500000037252903,1000.0,100000000.0,0.30000001192092896
752,2,0.4095197319984436,0.2775000035762787,-1.0079429149627686,-7.397152330668177e-07,-609.2344360351562,-96.20001220703125,-0.21504198014736176,-460.27520751953125,0.0,0.0,0.0,0.0,2.499999936844688e-05,0.02500000037252903,1000.0,100000000.0,0.30000001192092896
753,2,0.414519727230072,0.27250000834465027,-1.0079460144042969,-5.818029649162781e-07,-97.85625457763672,47.69550323486328,0.6987020373344421,-79.551025390625,0.0,0.0,0.0,0.0,2.499999936844688e-05,0.02500000037252903,1000.0,100000000.0,0.30000001192092896
754,2,0.414519727230072,0.2775000035762787,-1.007944941520691,-7.347156838477531e-07,-105.96329498291016,-98.23844146728516,0.677371084690094,-85.58625030517578,0.0,0.0,0.0,0.0,2.499999936844688e-05,0.02500000037252903,1000.0,100000000.0,0.30000001192092896
755,2,0.4095197319984436,0.2824999988079071,-1.0079456567764282,-8.925897532208182e-07,-629.29541015625,-36.27730178833008,-0.5520937442779541,-476.0003662109375,0.0,0.0,0.0,0.0,2.499999936844688e-05,0.02500000037252903,1000.0,100000000.0,0.30000001192092896
756,2,0.4095197319984436,0.2874999940395355,-1.0079460144042969,-1.050029482030368e-06,-659.4322509765625,-46.161277770996094,-1.0796750783920288,-498.447509765625,0.0,0.0,0.0,0.0,2.499999936844688e-05,0.02500000037252903,1000.0,100000000.0,0.30000001192092896
757,2,0.414519727230072,0.2824999988079071,-1.0079476833343506,-9.045321007761231e-07,-130.81016540527344,-45.03860855102539,0.29774951934814453,-105.98856353759766,0.0,0.0,0.0,0.0,2.499999936844688e-05,0.02500000037252903,1000.0,100000000.0,0.30000001192092896
758,2,0.414519727230072,0.2874999940395355,-1.0079482793807983,-1.091247781914717e-06,-166.05230712890625,-54.910579681396484,-0.44001343846321106,-132.23312377929688,0.0,0.0,0.0,0.0,2.499999936844688e-05,0.02500000037252903,1000.0,100000000.0,0.30000001192092896
759,2,0.4095197319984436,0.29249998927116394,-1.0079448223114014,-1.1382728644093731e-06,-700.1964721679688,165.32733154296875,-1.0371074676513672,-522.939453125,0.0,0.0,0.0,0.0,2.499999936844688e-05,0.02500000037252903,1000.0,100000000.0,0.30000001192092896
760,2,0.4095197319984436,0.29750001430511475,-1.0079421997070312,-1.1573188203328755e-06,-771.1658325195312,279.7674560546875,-0.4243905246257782,-575.7883911132812,0.0,0.0,0.0,0.0,2.499999936844688e-05,0.02500000037252903,1000.0,100000000.0,0.30000001192092896
761,2,0.414519727230072,0.29249998927116394,-1.0079474449157715,-1.1980445151493768e-06,-218.5969696044922,142.7880096435547,-0.9933144450187683,-164.5530548095703,0.0,0.0,0.0,0.0,2.499999936844688e-05,0.02500000037252903,1000.0,100000000.0,0.30000001192092896
762,2,0.414519727230072,0.29750001430511475,-1.0079452991485596,-1.2249219025761704e-06,-311.22113037109375,257.23590087890625,-1.362147331237793,-233.5277862548828,0.0,0.0,0.0,0.0,2.499999936844688e-05,0.02500000037252903,1000.0,100000000.0,0.30000001192092896
763,2,0.4095197319984436,0.30250000953674316,-1.007936716079712,-1.0305751629857696e-06,-797.2423706054688,124.38050842285156,1.8104729652404785,-582.001708984375,0.0,0.0,0.0,0.0,2.499999936844688e-05,0.02500000037252903,1000.0,100000000.0,0.30000001192092896
764,2,0.4095197319984436,0.3075000047683716,-1.0079339742660522,-7.58049395699345e-07,-822.5695190429688,33.04924392700195,5.66748571395874,-600.8616943359375,0.0,0.0,0.0,0.0,2.499999936844688e-05,0.02500000037252903,1000.0,100000000.0,0.30000001192092896
765,2,0.414519727230072,0.30250000953674316,-1.0079401731491089,-1.0832408179339836e-06,-357.742431640625,112.59447479248047,-1.3959922790527344,-252.7844696044922,0.0,0.0,0.0,0.0,2.499999936844688e-05,0.02500000037252903,1000.0,100000000.0,0.30000001192092896
766,2,0.4195197522640228,0.19750000536441803,-1.0079528093338013,8.526719739165856e-07,152.11351013183594,120.36035919189453,0.48119309544563293,107.89669799804688,0.0,0.0,0.0,0.0,2.499999936844688e-05,0.02500000037252903,1000.0,100000000.0,0.30000001192092896
767,2,0.42451974749565125,0.19750000536441803,-1.007952332496643,8.894267580217274e-07,203.23013305664062,147.95225524902344,1.0814968347549438,145.5128173828125,0.0,0.0,0.0,0.0,2.499999936844688e-05,0.02500000037252903,1000.0,100000000.0,0.30000001192092896
768,2,0.4195197522640228,0.20250000059604645,-1.0079504251480103,6.748238661202777e-07,184.00750732421875,44.28820037841797,-1.199440836906433,125.09508514404297,0.0,0.0,0.0,0.0,2.499999936844688e-05,0.02500000037252903,1000.0,100000000.0,0.30000001192092896
769,2,0.4195197522640228,0.20749999582767487,-1.0079492330551147,4.3863224163942505e-07,193.31809997558594,25.65336036682129,-3.7464632987976074,132.03109741210938,0.0,0.0,0.0,0.0,2.499999936844688e-05,0.02500000037252903,1000.0,100000000.0,0.30000001192092896
770,2,0.42451974749565125,0.20250000059604645,-1.0079495906829834,6.577239446414751e-07,250.01608276367188,48.36249542236328,-0.7166672945022583,168.47018432617188,0.0,0.0,0.0,0.0,2.499999936844688e-05,0.02500000037252903,1000.0,100000000.0,0.30000001192092896
771,2,0.42451974749565125,0.20749999582767487,-1.007948398590088,2.958860818580433e-07,267.37384033203125,29.72755241394043,-4.246958255767822,181.39859008789062,0.0,0.0,0.0,0.0,2.499999936844688e-05,0.02500000037252903,1000.0,100000000.0,0.30000001192092896
772,2,0.4195197522640228,0.21250000596046448,-1.0079489946365356,2.372485710111505e-07,196.34286499023438,-33.85575866699219,-4.991197109222412,138.54632568359375,0.0,0.0,0.0,0.0,2.499999936844688e-05,0.02500000037252903,1000.0,100000000.0,0.30000001192092896
773,2,0.4195197522640228,0.2175000011920929,-1.0079494714736938,7.067284713002664e-08,178.64608764648438,-107.09648132324219,-4.933408260345459,125.3658447265625,0.0,0.0,0.0,0.0,2.499999936844688e-05,0.02500000037252903,1000.0,100000000.0,0.30000001192092896
774,2,0.42451974749565125,0.21250000596046448,-1.0079481601715088,3.54533007396185e-08,283.60577392578125,-38.91120147705078,-5.843816757202148,204.0057830810547,0.0,0.0,0.0,0.0,2.499999936844688e-05,0.02500000037252903,1000.0,100000000.0,0.30000001192092896
775,2,0.42451974749565125,0.2175000011920929,-1.0079487562179565,-1.2357475043245358e-07,263.4480285644531,-112.15676879882812,-5.5071611404418945,188.9975128173828,0.0,0.0,0.0,0.0,2.499999936844688e-05,0.02500000037252903,1000.0,100000000.0,0.30000001192092896
776,2,0.4195197522640228,0.2224999964237213,-1.0079514980316162,-5.0627662062652234e-08,169.86517333984375,-32.326175689697266,-4.548403263092041,123.38780975341797,0.0,0.0,0.0,0.0,2.499999936844688e-05,0.02500000037252903,1000.0,100000000.0,0.30000001192092896
777,2,0.4195197522640228,0.22750000655651093,-1.0079518556594849,-1.2665329052197194e-07,154.67066955566406,64.0401840209961,-3.8360602855682373,112.07078552246094,0.0,0.0,0.0,0.0,2.499999936844688e-05,0.02500000037252903,1000.0,100000000.0,0.30000001192092896
778,2,0.42451974749565125,0.2224999964237213,-1.007950782775879,-2.2552296741196187e-07,253.95770263671875,-36.65489959716797,-4.864040851593018,187.57437133789062,0.0,0.0,0.0,0.0,2.499999936844688e-05,0.02500000037252903,1000.0,100000000.0,0.30000001192092896
779,2,0.42451974749565125,0.22750000655651093,-1.007951021194458,-2.7039106953452574e-07,236.6419219970703,59.71760559082031,-3.9145734310150146,174.6788787841797,0.0,0.0,0.0,0.0,2.499999936844688e-05,0.02500000037252903,1000.0,100000000.0,0.30000001192092896
780,2,0.4195197522640228,0.23250000178813934,-1.0079503059387207,-1.8112116606516793e-07,145.51190185546875,16.573894500732422,-3.1684298515319824,107.27031707763672,0.0,0.0,0.0,0.0,2.499999936844688e-05,0.02500000037252903,1000.0,100000000.0,0.30000001192092896
781,2,0.4195197522640228,0.23749999701976776,-1.007949709892273,-2.1403202765668539e-07,135.6949005126953,-2.063783884048462,-2.545530080795288,99.95873260498047,0.0,0.0,0.0,0.0,2.499999936844688e-05,0.02500000037252903,1000.0,100000000.0,0.30000001192092896
782,2,0.42451974749565125,0.23250000178813934,-1.0079495906829834,-2.974635151531402e-07,225.06784057617188,13.776707649230957,-3.1017239093780518,167.67298889160156,0.0,0.0,0.0,0.0,2.499999936844688e-05,0.02500000037252903,1000.0,100000000.0,0.30000001192092896
783,2,0.42451974749565125,0.23749999701976776,-1.0079491138458252,-3.0674138429276354e-07,213.9226837158203,-4.8613600730896,-2.425501585006714,159.37179565429688,0.0,0.0,0.0,0.0,2.499999936844688e-05,0.02500000037252903,1000.0,100000000.0,0.30000001192092896
784,2,0.4195197522640228,0.24250000715255737,-1.0079501867294312,-2.398132892267313e-07,129.27548217773438,-48.13937759399414,-1.9215277433395386,95.8249282836914,0.0,0.0,0.0,0.0,2.499999936844688e-05,0.02500000037252903,1000.0,100000000.0,0.30000001192092896
785,2,0.4195197522640228,0.2475000023841858,-1.007951259613037,-2.5846489393188676e-07,123.97529602050781,-121.38065338134766,-1.2964245080947876,91.87996673583984,0.0,0.0,0.0,0.0,2.499999936844688e-05,0.02500000037252903,1000.0,100000000.0,0.30000001192092896
786,2,0.42451974749565125,0.24250000715255737,-1.0079495906829834,-3.0904934078535007e-07,206.1432342529297,-49.67072296142578,-1.765092372894287,154.18438720703125,0.0,0.0,0.0,0.0,2.499999936844688e-05,0.02500000037252903,1000.0,100000000.0,0.30000001192092896
787,2,0.42451974749565125,0.2475000023841858,-1.0079505443572998,-3.043874983177375e-07,199.98934936523438,-122.9157943725586,-1.1205559968948364,149.60299682617188,0.0,0.0,0.0,0.0,2.499999936844688e-05,0.02500000037252903,1000.0,100000000.0,0.30000001192092896
788,2,0.4195197522640228,0.2524999976158142,-1.0079535245895386,-2.8243394467608596e-07,121.55493927001953,-35.83876037597656,-0.6309937834739685,89.60975646972656,0.0,0.0,0.0,0.0,2.499999936844688e-05,0.02500000037252903,1000.0,100000000.0,0.30000001192092896
789,2,0.4195197522640228,0.2574999928474426,-1.0079538822174072,-3.117195319646271e-07,123.49728393554688,-45.720394134521484,0.07478435337543488,91.05573272705078,0.0,0.0,0.0,0.0,2.499999936844688e-05,0.02500000037252903,1000.0,100000000.0,0.30000001192092896
790,2,0.42451974749565125,0.2524999976158142,-1.0079529285430908,-3.025123760380666e-07,197.75634765625,-35.1984977722168,-0.4053933024406433,147.69473266601562,0.0,0.0,0.0,0.0,2.499999936844688e-05,0.02500000037252903,1000.0,100000000.0,0.30000001192092896
791,2,0.42451974749565125,0.2574999928474426,-1.007953405380249,-3.0342303602992615e-07,200.37974548339844,-45.07319641113281,0.380313515663147,149.64845275878906,0.0,0.0,0.0,0.0,2.499999936844688e-05,0.02500000037252903,1000.0,100000000.0,0.30000001192092896
792,2,0.4195197522640228,0.26249998807907104,-1.0079529285430908,-3.632387972629658e-07,124.13231658935547,151.56024169921875,0.8044463992118835,89.57205963134766,0.0,0.0,0.0,0.0,2.499999936844688e-05,0.02500000037252903,1000.0,100000000.0,0.30000001192092896
793,2,0.4195197522640228,0.26750001311302185,-1.0079506635665894,-4.369917121493927e-07,130.0335235595703,265.998291015625,1.5582998991012573,93.96622467041016,0.0,0.0,0.0,0.0,2.499999936844688e-05,0.02500000037252903,1000.0,100000000.0,0.30000001192092896
794,2,0.42451974749565125,0.26249998807907104,-1.007952332496643,-3.2357669965676905e-07,203.15548706054688,153.569580078125,1.2628322839736938,150.04049682617188,0.0,0.0,0.0,0.0,2.499999936844688e-05,0.02500000037252903,1000.0,100000000.0,0.30000001192092896
795,2,0.42451974749565125,0.26750001311302185,-1.0079500675201416,-3.6297345218372357e-07,211.59645080566406,268.00445556640625,2.242144823074341,156.324951171875,0.0,0.0,0.0,0.0,2.499999936844688e-05,0.02500000037252903,1000.0,100000000.0,0.30000001192092896
796,2,0.4195197522640228,0.27250000834465027,-1.007946252822876,-5.500025395122066e-07,127.0138168334961,46.37777328491211,2.2064454555511475,88.18264770507812,0.0,0.0,0.0,0.0,2.499999936844688e-05,0.02500000037252903,1000.0,100000000.0,0.30000001192092896
797,2,0.4195197522640228,0.2775000035762787,-1.0079450607299805,-7.02274292052607e-07,126.86619567871094,-99.5588150024414,2.749701976776123,88.07261657714844,0.0,0.0,0.0,0.0,2.499999936844688e-05,0.02500000037252903,1000.0,100000000.0,0.30000001192092896
798,2,0.42451974749565125,0.27250000834465027,-1.0079455375671387,-4.4446952074395085e-07,211.29962158203125,47.06789779663086,3.188122510910034,152.39646911621094,0.0,0.0,0.0,0.0,2.499999936844688e-05,0.02500000037252903,1000.0,100000000.0,0.30000001192092896
799,2,0.42451974749565125,0.2775000035762787,-1.0079444646835327,-5.680671506524959e-07,214.73052978515625,-98.86827087402344,4.100841999053955,154.95269775390625,0.0,0.0,0.0,0.0,2.499999936844688e-05,0.02500000037252903,1000.0,100000000.0,0.30000001192092896
800,2,0.4195197522640228,0.2824999988079071,-1.0079481601715088,-8.879289339347451e-07,105.70948791503906,-53.60773468017578,2.7313005924224854,68.93952178955078,0.0,0.0,0.0,0.0,2.499999936844688e-05,0.02500000037252903,1000.0,100000000.0,0.30000001192092896
801,2,0.4195197522640228,0.2874999940395355,-1.007948875427246,-1.106961917685112e-06,74.80923461914062,-63.4946174621582,2.1508185863494873,45.92941665649414,0.0,0.0,0.0,0.0,2.499999936844688e-05,0.02500000037252903,1000.0,100000000.0,0.30000001192092896
802,2,0.42451974749565125,0.2824999988079071,-1.0079474449157715,-7.506046699745639e-07,192.2744903564453,-61.164031982421875,4.322024822235107,132.5401153564453,0.0,0.0,0.0,0.0,2.499999936844688e-05,0.02500000037252903,1000.0,100000000.0,0.30000001192092896
803,2,0.42451974749565125,0.2874999940395355,-1.0079482793807983,-9.920781849359628e-07,162.9318084716797,-71.0372085571289,3.8516387939453125,110.6883316040039,0.0,0.0,0.0,0.0,2.499999936844688e-05,0.02500000037252903,1000.0,100000000.0,0.30000001192092896
804,2,0.4195197522640228,0.29249998927116394,-1.007948398590088,-1.2501006949605653e-06,8.992192268371582,116.4375228881836,0.3635425865650177,2.8148608207702637,0.0,0.0,0.0,0.0,2.499999936844688e-05,0.02500000037252903,1000.0,100000000.0,0.30000001192092896
805,2,0.4195197522640228,0.29750001430511475,-1.0079467296600342,-1.31734452679666e-06,-111.3863525390625,230.88693237304688,-2.630655288696289,-86.82892608642578,0.0,0.0,0.0,0.0,2.499999936844688e-05,0.02500000037252903,1000.0,100000000.0,0.30000001192092896
806,2,0.42451974749565125,0.29249998927116394,-1.007948398590088,-1.229646613865043e-06,81.49665832519531,83.46959686279297,1.2724984884262085,49.28464889526367,0.0,0.0,0.0,0.0,2.499999936844688e-05,0.02500000037252903,1000.0,100000000.0,0.30000001192092896
807,2,0.42451974749565125,0.29750001430511475,-1.007947325706482,-1.4633095588578726e-06,-49.706241607666016,197.9199981689453,-3.4154603481292725,-48.419677734375,0.0,0.0,0.0,0.0,2.499999936844688e-05,0.02500000037252903,1000.0,100000000.0,0.30000001192092896
808,2,0.4195197522640228,0.30250000953674316,-1.0079419612884521,-1.2104848110539024e-06,-179.55520629882812,96.69202423095703,-4.510047435760498,-120.27745056152344,0.0,0.0,0.0,0.0,2.499999936844688e-05,0.02500000037252903,1000.0,100000000.0,0.30000001192092896
809,2,0.42451974749565125,0.30250000953674316,-1.007943034172058,-1.4491288311546668e-06,-113.38306427001953,77.8143539428711,-6.32197904586792,-72.8677749633789,0.0,0.0,0.0,0.0,2.499999936844688e-05,0.02500000037252903,1000.0,100000000.0,0.30000001192092896
810,2,0.42951974272727966,0.20250000059604645,-1.0079472064971924,6.192693717821385e-07,808.962890625,43.28905487060547,-4.729374408721924,578.6552124023438,0.0,0.0,0.0,0.0,2.499999936844688e-05,0.02500000037252903,1000.0,100000000.0,0.30000001192092896
811,2,0.42951974272727966,0.20749999582767487,-1.0079458951950073,1.2059665266406228e-07,732.7711791992188,24.65340232849121,-7.952366828918457,521.9171142578125,0.0,0.0,0.0,0.0,2.499999936844688e-05,0.02500000037252903,1000.0,100000000.0,0.30000001192092896
812,2,0.4345197379589081,0.20749999582767487,-1.007943034172058,-2.634132272305578e-07,123.18103790283203,-0.8904649019241333,-10.503959655761719,62.84766387939453,0.0,0.0,0.0,0.0,2.499999936844688e-05,0.02500000037252903,1000.0,100000000.0,0.30000001192092896
813,2,0.42951974272727966,0.21250000596046448,-1.0079457759857178,-1.9621563751570648e-07,697.802978515625,-47.504276275634766,-8.379487991333008,514.1632690429688,0.0,0.0,0.0,0.0,2.499999936844688e-05,0.02500000037252903,1000.0,100000000.0,0.30000001192092896
814,2,0.42951974272727966,0.2175000011920929,-1.0079463720321655,-3.311681950890488e-07,642.7805786132812,-120.7464599609375,-6.010397911071777,473.1882019042969,0.0,0.0,0.0,0.0,2.499999936844688e-05,0.02500000037252903,1000.0,100000000.0,0.30000001192092896
815,2,0.4345197379589081,0.21250000596046448,-1.007943034172058,-5.56321253952774e-07,85.72168731689453,-64.20545959472656,-10.061737060546875,64.3150863647461,0.0,0.0,0.0,0.0,2.499999936844688e-05,0.02500000037252903,1000.0,100000000.0,0.30000001192092896
816,2,0.4345197379589081,0.2175000011920929,-1.007943868637085,-5.641898610520002e-07,17.74042320251465,-137.45228576660156,-6.34606409072876,13.690885543823242,0.0,0.0,0.0,0.0,2.499999936844688e-05,0.02500000037252903,1000.0,100000000.0,0.30000001192092896
817,2,0.42951974272727966,0.2224999964237213,-1.0079485177993774,-4.0314594684787153e-07,614.391845703125,-41.40266418457031,-4.295397758483887,457.70867919921875,0.0,0.0,0.0,0.0,2.499999936844688e-05,0.02500000037252903,1000.0,100000000.0,0.30000001192092896
818,2,0.42951974272727966,0.22750000655651093,-1.0079487562179565,-4.1214792645405396e-07,593.7053833007812,54.9638557434082,-3.2344589233398438,442.3006896972656,0.0,0.0,0.0,0.0,2.499999936844688e-05,0.02500000037252903,1000.0,100000000.0,0.30000001192092896
819,2,0.4345197379589081,0.2224999964237213,-1.0079461336135864,-5.526542281586444e-07,-24.41166114807129,-46.95940399169922,-3.924630880355835,-16.05998420715332,0.0,0.0,0.0,0.0,2.499999936844688e-05,0.02500000037252903,1000.0,100000000.0,0.30000001192092896
820,2,0.4345197379589081,0.22750000655651093,-1.007946491241455,-5.217124225964653e-07,-46.4136962890625,49.40400314331055,-2.7974390983581543,-32.444419860839844,0.0,0.0,0.0,0.0,2.499999936844688e-05,0.02500000037252903,1000.0,100000000.0,0.30000001192092896
821,2,0.42951974272727966,0.23250000178813934,-1.007947325706482,-4.0937175072031096e-07,578.525146484375,10.761975288391113,-2.43845796585083,431.9847412109375,0.0,0.0,0.0,0.0,2.499999936844688e-05,0.02500000037252903,1000.0,100000000.0,0.30000001192092896
822,2,0.42951974272727966,0.23749999701976776,-1.0079468488693237,-3.948187270452763e-07,565.5914916992188,-7.875859260559082,-1.9073463678359985,422.3553161621094,0.0,0.0,0.0,0.0,2.499999936844688e-05,0.02500000037252903,1000.0,100000000.0,0.30000001192092896
823,2,0.4345197379589081,0.23250000178813934,-1.00794517993927,-4.905136279376165e-07,-64.56065368652344,7.29727029800415,-2.015113592147827,-46.1103401184082,0.0,0.0,0.0,0.0,2.499999936844688e-05,0.02500000037252903,1000.0,100000000.0,0.30000001192092896
824,2,0.4345197379589081,0.23749999701976776,-1.007944941520691,-4.590590094721847e-07,-78.3659896850586,-11.342852592468262,-1.577778697013855,-56.391685485839844,0.0,0.0,0.0,0.0,2.499999936844688e-05,0.02500000037252903,1000.0,100000000.0,0.30000001192092896
825,2,0.42951974272727966,0.24250000715255737,-1.0079474449157715,-3.7376943851086253e-07,556.3927001953125,-51.380184173583984,-1.39401113986969,416.048828125,0.0,0.0,0.0,0.0,2.499999936844688e-05,0.02500000037252903,1000.0,100000000.0,0.30000001192092896
826,2,0.42951974272727966,0.2475000023841858,-1.0079485177993774,-3.462238282736507e-07,548.9767456054688,-124.6158447265625,-0.8984566330909729,410.5260009765625,0.0,0.0,0.0,0.0,2.499999936844688e-05,0.02500000037252903,1000.0,100000000.0,0.30000001192092896
827,2,0.4345197379589081,0.24250000715255737,-1.0079454183578491,-4.216872468987276e-07,-88.24581909179688,-53.33770751953125,-1.159380555152893,-63.26603317260742,0.0,0.0,0.0,0.0,2.499999936844688e-05,0.02500000037252903,1000.0,100000000.0,0.30000001192092896
828,2,0.4345197379589081,0.2475000023841858,-1.007946491241455,-3.78398254952117e-07,-95.95685577392578,-126.58110046386719,-0.759926974773407,-69.00806427001953,0.0,0.0,0.0,0.0,2.499999936844688e-05,0.02500000037252903,1000.0,100000000.0,0.30000001192092896
829,2,0.42951974272727966,0.2524999976158142,-1.0079509019851685,-3.184346724083298e-07,546.9817504882812,-34.442787170410156,-0.32919466495513916,409.0481262207031,0.0,0.0,0.0,0.0,2.499999936844688e-05,0.02500000037252903,1000.0,100000000.0,0.30000001192092896
830,2,0.42951974272727966,0.2574999928474426,-1.0079513788223267,-2.9040097615506966e-07,550.2752685546875,-44.32979202270508,0.31380319595336914,411.50592041015625,0.0,0.0,0.0,0.0,2.499999936844688e-05,0.02500000037252903,1000.0,100000000.0,0.30000001192092896
831,2,0.4345197379589081,0.2524999976158142,-1.0079487562179565,-3.3221050443899003e-07,-97.76074981689453,-33.579872131347656,-0.287058025598526,-70.08553314208984,0.0,0.0,0.0,0.0,2.499999936844688e-05,0.02500000037252903,1000.0,100000000.0,0.30000001192092896
832,2,0.4345197379589081,0.2574999928474426,-1.0079492330551147,-2.831228584909695e-07,-94.34909057617188,-43.45278549194336,0.2592446804046631,-67.54600524902344,0.0,0.0,0.0,0.0,2.499999936844688e-05,0.02500000037252903,1000.0,100000000.0,0.30000001192092896
833,2,0.42951974272727966,0.26249998807907104,-1.0079504251480103,-2.7654141376842745e-07,558.29541015625,156.542236328125,1.1890555620193481,416.284912109375,0.0,0.0,0.0,0.0,2.499999936844688e-05,0.02500000037252903,1000.0,100000000.0,0.30000001192092896
834,2,0.42951974272727966,0.26750001311302185,-1.0079480409622192,-2.768561273569503e-07,575.0527954101562,270.9861755371094,2.296570301055908,428.76776123046875,0.0,0.0,0.0,0.0,2.499999936844688e-05,0.02500000037252903,1000.0,100000000.0,0.30000001192092896
835,2,0.4345197379589081,0.26249998807907104,-1.0079482793807983,-2.3644990676530142e-07,-82.88783264160156,161.46629333496094,1.126643419265747,-59.14888381958008,0.0,0.0,0.0,0.0,2.499999936844688e-05,0.02500000037252903,1000.0,100000000.0,0.30000001192092896
836,2,0.4345197379589081,0.26750001311302185,-1.0079457759857178,-1.9219169189454988e-07,-63.04344177246094,275.9114074707031,2.3152027130126953,-44.37056350708008,0.0,0.0,0.0,0.0,2.499999936844688e-05,0.02500000037252903,1000.0,100000000.0,0.30000001192092896
837,2,0.42951974272727966,0.27250000834465027,-1.0079433917999268,-3.1969409519660985e-07,591.9345092773438,50.35239791870117,3.5624778270721436,437.7256164550781,0.0,0.0,0.0,0.0,2.499999936844688e-05,0.02500000037252903,1000.0,100000000.0,0.30000001192092896
838,2,0.42951974272727966,0.2775000035762787,-1.0079420804977417,-4.050565394209116e-07,620.9453735351562,-95.58179473876953,4.986820220947266,459.33056640625,0.0,0.0,0.0,0.0,2.499999936844688e-05,0.02500000037252903,1000.0,100000000.0,0.30000001192092896
839,2,0.4345197379589081,0.27250000834465027,-1.0079410076141357,-1.80738993549312e-07,-37.42279052734375,60.07682418823242,3.789255380630493,-28.004812240600586,0.0,0.0,0.0,0.0,2.499999936844688e-05,0.02500000037252903,1000.0,100000000.0,0.30000001192092896
840,2,0.4345197379589081,0.2775000035762787,-1.0079395771026611,-2.020920106815538e-07,2.9562556743621826,-85.85723876953125,5.548916816711426,2.0644500255584717,0.0,0.0,0.0,0.0,2.499999936844688e-05,0.02500000037252903,1000.0,100000000.0,0.30000001192092896
841,2,0.42951974272727966,0.2824999988079071,-1.00794517993927,-5.717733415622206e-07,634.1000366210938,-63.697898864746094,6.60107421875,461.982177734375,0.0,0.0,0.0,0.0,2.499999936844688e-05,0.02500000037252903,1000.0,100000000.0,0.30000001192092896
842,2,0.42951974272727966,0.2874999940395355,-1.0079463720321655,-8.198412615456618e-07,655.1984252929688,-73.57991027832031,8.40519905090332,477.7044677734375,0.0,0.0,0.0,0.0,2.499999936844688e-05,0.02500000037252903,1000.0,100000000.0,0.30000001192092896
843,2,0.4345197379589081,0.2824999988079071,-1.0079424381256104,-2.789188329188619e-07,34.9867057800293,-54.407928466796875,8.099142074584961,21.061922073364258,0.0,0.0,0.0,0.0,2.499999936844688e-05,0.02500000037252903,1000.0,100000000.0,0.30000001192092896
844,2,0.4345197379589081,0.2874999940395355,-1.0079435110092163,-4.112178544346534e-07,74.94853973388672,-64.27898406982422,11.439892768859863,50.820404052734375,0.0,0.0,0.0,0.0,2.499999936844688e-05,0.02500000037252903,1000.0,100000000.0,0.30000001192092896
845,2,0.42951974272727966,0.29249998927116394,-1.0079467296600342,-1.1580541467992589e-06,613.7394409179688,56.106201171875,6.740492343902588,437.1546325683594,0.0,0.0,0.0,0.0,2.499999936844688e-05,0.02500000037252903,1000.0,100000000.0,0.30000001192092896
846,2,0.42951974272727966,0.29750001430511475,-1.0079463720321655,-1.5864117131059174e-06,542.1017456054688,177.67413330078125,1.6061049699783325,383.8040771484375,0.0,0.0,0.0,0.0,2.499999936844688e-05,0.02500000037252903,1000.0,100000000.0,0.30000001192092896
847,2,0.4345197379589081,0.29249998927116394,-1.0079442262649536,-7.800404091540258e-07,27.64549446105957,41.4873046875,10.483137130737305,-8.448333740234375,0.0,0.0,0.0,0.0,2.499999936844688e-05,0.02500000037252903,1000.0,100000000.0,0.30000001192092896
848,2,0.4395197331905365,0.21250000596046448,-1.0079432725906372,-9.176034723168414e-07,-708.3817749023438,-80.31913757324219,-6.114163398742676,-521.1133422851562,0.0,0.0,0.0,0.0,2.499999936844688e-05,0.02500000037252903,1000.0,100000000.0,0.30000001192092896
849,2,0.4395197331905365,0.2175000011920929,-1.0079443454742432,-7.859902666496055e-07,-768.9740600585938,-153.5610809326172,-3.5781991481781006,-566.2426147460938,0.0,0.0,0.0,0.0,2.499999936844688e-05,0.02500000037252903,1000.0,100000000.0,0.30000001192092896
850,2,0.4445197284221649,0.2175000011920929,-1.0079469680786133,-8.50533922402974e-07,-276.4455261230469,-170.00991821289062,-1.6594719886779785,-196.40968322753906,0.0,0.0,0.0,0.0,2.499999936844688e-05,0.02500000037252903,1000.0,100000000.0,0.30000001192092896
851,2,0.4395197331905365,0.2224999964237213,-1.0079468488693237,-6.858651886432199e-07,-801.7737426757812,-50.13070297241211,-2.0437731742858887,-593.3087768554688,0.0,0.0,0.0,0.0,2.499999936844688e-05,0.02500000037252903,1000.0,100000000.0,0.30000001192092896
852,2,0.4395197331905365,0.22750000655651093,-1.007947325706482,-6.172255666569981e-07,-797.970458984375,46.235782623291016,-1.5108696222305298,-590.4793701171875,0.0,0.0,0.0,0.0,2.499999936844688e-05,0.02500000037252903,1000.0,100000000.0,0.30000001192092896
853,2,0.4445197284221649,0.2224999964237213,-1.0079495906829834,-7.323046702367719e-07,-310.9172668457031,-46.92805862426758,-0.8387693762779236,-227.37730407714844,0.0,0.0,0.0,0.0,2.499999936844688e-05,0.02500000037252903,1000.0,100000000.0,0.30000001192092896
854,2,0.4445197284221649,0.22750000655651093,-1.0079500675201416,-6.552363629452884e-07,-296.0375671386719,49.44466781616211,-0.6962348818778992,-216.29579162597656,0.0,0.0,0.0,0.0,2.499999936844688e-05,0.02500000037252903,1000.0,100000000.0,0.30000001192092896
855,2,0.4395197331905365,0.23250000178813934,-1.0079461336135864,-5.595497327703924e-07,-809.0652465820312,3.0179691314697266,-1.0634965896606445,-599.8014526367188,0.0,0.0,0.0,0.0,2.499999936844688e-05,0.02500000037252903,1000.0,100000000.0,0.30000001192092896
856,2,0.4395197331905365,0.23749999701976776,-1.0079458951950073,-5.128391080688743e-07,-831.4089965820312,-15.618103981018066,-0.7016699910163879,-616.4483642578125,0.0,0.0,0.0,0.0,2.499999936844688e-05,0.02500000037252903,1000.0,100000000.0,0.30000001192092896
857,2,0.4445197284221649,0.23250000178813934,-1.007948875427246,-5.856452958141745e-07,-303.6006164550781,-3.572664499282837,-0.4600979685783386,-222.8145294189453,0.0,0.0,0.0,0.0,2.499999936844688e-05,0.02500000037252903,1000.0,100000000.0,0.30000001192092896
858,2,0.4445197284221649,0.23749999701976776,-1.0079487562179565,-5.235328330854827e-07,-330.2843322753906,-22.208389282226562,-0.13041973114013672,-242.6896514892578,0.0,0.0,0.0,0.0,2.499999936844688e-05,0.02500000037252903,1000.0,100000000.0,0.30000001192092896
859,2,0.4395197331905365,0.24250000715255737,-1.007946491241455,-4.614313695583405e-07,-846.6631469726562,-55.472923278808594,-0.4430573284626007,-627.481689453125,0.0,0.0,0.0,0.0,2.499999936844688e-05,0.02500000037252903,1000.0,100000000.0,0.30000001192092896
860,2,0.4395197331905365,0.2475000023841858,-1.007947564125061,-4.053266025039193e-07,-856.1048583984375,-128.7152557373047,-0.2876623272895813,-634.5178833007812,0.0,0.0,0.0,0.0,2.499999936844688e-05,0.02500000037252903,1000.0,100000000.0,0.30000001192092896
861,2,0.4445197284221649,0.24250000715255737,-1.0079494714736938,-4.635342918390961e-07,-349.11199951171875,-58.025146484375,0.034584976732730865,-256.9076843261719,0.0,0.0,0.0,0.0,2.499999936844688e-05,0.02500000037252903,1000.0,100000000.0,0.30000001192092896
862,2,0.4445197284221649,0.2475000023841858,-1.0079505443572998,-4.056496720750147e-07,-359.31744384765625,-131.2742156982422,0.03488346189260483,-264.50482177734375,0.0,0.0,0.0,0.0,2.499999936844688e-05,0.02500000037252903,1000.0,100000000.0,0.30000001192092896
863,2,0.4395197331905365,0.2524999976158142,-1.007949948310852,-3.4538757631707995e-07,-861.8155517578125,-33.2694091796875,-0.3143290877342224,-638.5197143554688,0.0,0.0,0.0,0.0,2.499999936844688e-05,0.02500000037252903,1000.0,100000000.0,0.30000001192092896
864,2,0.4395197331905365,0.2574999928474426,-1.0079503059387207,-2.816132109728642e-07,-864.64404296875,-43.15481948852539,-0.5230997204780579,-640.6268310546875,0.0,0.0,0.0,0.0,2.499999936844688e-05,0.02500000037252903,1000.0,100000000.0,0.30000001192092896
865,2,0.4445197284221649,0.2524999976158142,-1.0079529285430908,-3.5779325457951927e-07,-368.7462158203125,-34.619232177734375,-0.32396501302719116,-272.4005126953125,0.0,0.0,0.0,0.0,2.499999936844688e-05,0.02500000037252903,1000.0,100000000.0,0.30000001192092896
866,2,0.4445197284221649,0.2574999928474426,-1.0079532861709595,-3.1996387406252325e-07,-374.61529541015625,-44.49040222167969,-1.04192054271698,-276.7738952636719,0.0,0.0,0.0,0.0,2.499999936844688e-05,0.02500000037252903,1000.0,100000000.0,0.30000001192092896
867,2,0.4395197331905365,0.26249998807907104,-1.0079493522644043,-2.0663671307374898e-07,-849.5830078125,167.4351043701172,-0.35251978039741516,-628.368408203125,0.0,0.0,0.0,0.0,2.499999936844688e-05,0.02500000037252903,1000.0,100000000.0,0.30000001192092896
868,2,0.4395197331905365,0.26750001311302185,-1.0079466104507446,-1.204581252522985e-07,-820.0951538085938,281.8866271972656,0.19734685122966766,-606.4037475585938,0.0,0.0,0.0,0.0,2.499999936844688e-05,0.02500000037252903,1000.0,100000000.0,0.30000001192092896
869,2,0.4445197284221649,0.26249998807907104,-1.0079522132873535,-2.5501913114567287e-07,-356.53759765625,175.8344268798828,-1.3448184728622437,-260.8348693847656,0.0,0.0,0.0,0.0,2.499999936844688e-05,0.02500000037252903,1000.0,100000000.0,0.30000001192092896
870,2,0.4445197284221649,0.26750001311302185,-1.0079493522644043,-1.6295894056383986e-07,-322.7191467285156,290.29498291015625,-1.2326304912567139,-235.65321350097656,0.0,0.0,0.0,0.0,2.499999936844688e-05,0.02500000037252903,1000.0,100000000.0,0.30000001192092896
871,2,0.4395197331905365,0.27250000834465027,-1.0079416036605835,-5.240750766688507e-08,-772.9632568359375,73.1437759399414,1.4445488452911377,-572.5800170898438,0.0,0.0,0.0,0.0,2.499999936844688e-05,0.02500000037252903,1000.0,100000000.0,0.30000001192092896
872,2,0.4395197331905365,0.2775000035762787,-1.0079399347305298,-2.484247252354521e-09,-703.9944458007812,-72.79061889648438,3.3890955448150635,-521.2109375,0.0,0.0,0.0,0.0,2.499999936844688e-05,0.02500000037252903,1000.0,100000000.0,0.30000001192092896
873,2,0.4445197284221649,0.27250000834465027,-1.007944107055664,-5.1397346823023327e-08,-262.51947021484375,93.07955932617188,-0.14320503175258636,-188.8995819091797,0.0,0.0,0.0,0.0,2.499999936844688e-05,0.02500000037252903,1000.0,100000000.0,0.30000001192092896
874,2,0.4445197284221649,0.2775000035762787,-1.0079421997070312,7.96658383706017e-08,-182.32070922851562,-52.85823440551758,1.9234271049499512,-129.17596435546875,0.0,0.0,0.0,0.0,2.499999936844688e-05,0.02500000037252903,1000.0,100000000.0,0.30000001192092896
875,2,0.4395197331905365,0.2824999988079071,-1.0079426765441895,2.6864972468843007e-08,-653.8318481445312,-44.8132209777832,6.089212894439697,-485.91949462890625,0.0,0.0,0.0,0.0,2.499999936844688e-05,0.02500000037252903,1000.0,100000000.0,0.30000001192092896
876,2,0.4395197331905365,0.2874999940395355,-1.0079437494277954,3.5640411510939884e-08,-615.6356811523438,-47.57205581665039,9.544817924499512,-457.48089599609375,0.0,0.0,0.0,0.0,2.499999936844688e-05,0.02500000037252903,1000.0,100000000.0,0.30000001192092896
877,2,0.4445197284221649,0.2824999988079071,-1.0079445838928223,2.017997786651904e-07,-119.26713562011719,-33.77537155151367,4.615743637084961,-81.97018432617188,0.0,0.0,0.0,0.0,2.499999936844688e-05,0.02500000037252903,1000.0,100000000.0,0.30000001192092896
878,2,0.44951972365379333,0.2224999964237213,-1.007950782775879,-7.557958952020272e-07,-183.79649353027344,-40.72538757324219,-0.534591794013977,-132.50250244140625,0.0,0.0,0.0,0.0,2.499999936844688e-05,0.02500000037252903,1000.0,100000000.0,0.30000001192092896
879,2,0.44951972365379333,0.22750000655651093,-1.007951021194458,-6.778421948183677e-07,-146.25787353515625,55.64375686645508,-0.45986291766166687,-104.549560546875,0.0,0.0,0.0,0.0,2.499999936844688e-05,0.02500000037252903,1000.0,100000000.0,0.30000001192092896
880,2,0.44951972365379333,0.23250000178813934,-1.0079498291015625,-5.989680289530952e-07,-139.25099182128906,-9.985550880432129,-0.04427944868803024,-99.61811828613281,0.0,0.0,0.0,0.0,2.499999936844688e-05,0.02500000037252903,1000.0,100000000.0,0.30000001192092896
881,2,0.44951972365379333,0.23749999701976776,-1.0079498291015625,-5.191749323785189e-07,-161.82855224609375,-28.6225643157959,0.7121525406837463,-116.42984771728516,0.0,0.0,0.0,0.0,2.499999936844688e-05,0.02500000037252903,1000.0,100000000.0,0.30000001192092896
882,2,0.45451974868774414,0.23749999701976776,-1.0079504251480103,-4.71973947924198e-07,-99.185791015625,-34.06767654418945,1.2633157968521118,-68.08460998535156,0.0,0.0,0.0,0.0,2.499999936844688e-05,0.02500000037252903,1000.0,100000000.0,0.30000001192092896
883,2,0.44951972365379333,0.24250000715255737,-1.0079506635665894,-4.5043344698569854e-07,-176.0186309814453,-59.93353271484375,1.142380952835083,-127.95340728759766,0.0,0.0,0.0,0.0,2.499999936844688e-05,0.02500000037252903,1000.0,100000000.0,0.30000001192092896
884,2,0.44951972365379333,0.2475000023841858,-1.0079519748687744,-3.927435443529248e-07,-178.84500122070312,-133.1759796142578,1.2464487552642822,-130.05709838867188,0.0,0.0,0.0,0.0,2.499999936844688e-05,0.02500000037252903,1000.0,100000000.0,0.30000001192092896
885,2,0.45451974868774414,0.24250000715255737,-1.0079513788223267,-3.812524766999559e-07,-113.27080535888672,-59.94316864013672,1.8688312768936157,-80.94581604003906,0.0,0.0,0.0,0.0,2.499999936844688e-05,0.02500000037252903,1000.0,100000000.0,0.30000001192092896
886,2,0.45451974868774414,0.2475000023841858,-1.0079525709152222,-3.1765716812515166e-07,-112.66658020019531,-133.1886749267578,2.045692205429077,-80.49588012695312,0.0,0.0,0.0,0.0,2.499999936844688e-05,0.02500000037252903,1000.0,100000000.0,0.30000001192092896
887,2,0.44951972365379333,0.2524999976158142,-1.0079543590545654,-3.6447278262130567e-07,-192.54119873046875,-37.14495086669922,0.6074109673500061,-142.80899047851562,0.0,0.0,0.0,0.0,2.499999936844688e-05,0.02500000037252903,1000.0,100000000.0,0.30000001192092896
888,2,0.44951972365379333,0.2574999928474426,-1.007954716682434,-3.656198828139168e-07,-208.63922119140625,-47.02638244628906,-0.7744391560554504,-154.797607421875,0.0,0.0,0.0,0.0,2.499999936844688e-05,0.02500000037252903,1000.0,100000000.0,0.30000001192092896
889,2,0.45451974868774414,0.2524999976158142,-1.0079549551010132,-3.208484145034163e-07,-131.76614379882812,-41.97288513183594,1.2344259023666382,-100.52969360351562,0.0,0.0,0.0,0.0,2.499999936844688e-05,0.02500000037252903,1000.0,100000000.0,0.30000001192092896
890,2,0.45451974868774414,0.2574999928474426,-1.0079554319381714,-3.908249368578254e-07,-151.35345458984375,-51.84148406982422,-0.5649958252906799,-115.11732482910156,0.0,0.0,0.0,0.0,2.499999936844688e-05,0.02500000037252903,1000.0,100000000.0,0.30000001192092896
891,2,0.44951972365379333,0.26249998807907104,-1.0079535245895386,-3.2603259114694083e-07,-228.44871520996094,178.21432495117188,-2.137925863265991,-166.0518035888672,0.0,0.0,0.0,0.0,2.499999936844688e-05,0.02500000037252903,1000.0,100000000.0,0.30000001192092896
892,2,0.44951972365379333,0.26750001311302185,-1.0079505443572998,-2.4571073709012126e-07,-263.6299133300781,292.66162109375,-3.4829747676849365,-192.24749755859375,0.0,0.0,0.0,0.0,2.499999936844688e-05,0.02500000037252903,1000.0,100000000.0,0.30000001192092896
893,2,0.45451974868774414,0.26249998807907104,-1.007954478263855,-4.322780000620696e-07,-191.209228515625,162.259033203125,-2.635765314102173,-142.0101318359375,0.0,0.0,0.0,0.0,2.499999936844688e-05,0.02500000037252903,1000.0,100000000.0,0.30000001192092896
894,2,0.44951972365379333,0.27250000834465027,-1.0079450607299805,-9.711170889659115e-08,-211.75770568847656,116.8359375,-3.0251452922821045,-147.4063720703125,0.0,0.0,0.0,0.0,2.499999936844688e-05,0.02500000037252903,1000.0,100000000.0,0.30000001192092896
895,2,0.44951972365379333,0.2775000035762787,-1.0079426765441895,1.197636834149307e-07,-93.66800689697266,-21.97806167602539,-0.7643641233444214,-59.46718978881836,0.0,0.0,0.0,0.0,2.499999936844688e-05,0.02500000037252903,1000.0,100000000.0,0.30000001192092896
